opti conp comp property phon dist
cell
9.39000034   9.39000034  15.06000042  90.00000000  90.00000000 120.00000000
fractional
Al core -0.1111111 -0.2222222 0.1663613
Al core -0.1111111 -0.2222222 0.4996947
Al core -0.1111111 -0.2222222 -0.166972
Al core -0.1111111 0.1111111 0.1663613
Al core -0.1111111 0.1111111 0.4996947
Al core -0.1111111 0.1111111 -0.166972
Al core -0.1111111 0.4444444 0.1663613
Al core -0.1111111 0.4444444 0.4996947
Al core -0.1111111 0.4444444 -0.166972
Al core 0.2222222 -0.2222222 0.1663613
Al core 0.2222222 -0.2222222 0.4996947
Al core 0.2222222 -0.2222222 -0.166972
Al core 0.2222222 0.1111111 0.1663613
Al core 0.2222222 0.1111111 0.4996947
Al core 0.2222222 0.1111111 -0.166972
Al core 0.2222222 0.4444444 0.1663613
Al core 0.2222222 0.4444444 0.4996947
Al core 0.2222222 0.4444444 -0.166972
Al core -0.4444444 -0.2222222 0.1663613
Ga core -0.4444444 -0.2222222 0.4996947
Al core -0.4444444 -0.2222222 -0.166972
Al core -0.4444444 0.1111111 0.1663613
Al core -0.4444444 0.1111111 0.4996947
Al core -0.4444444 0.1111111 -0.166972
Al core -0.4444444 0.4444444 0.1663613
Ga core -0.4444444 0.4444444 0.4996947
Al core -0.4444444 0.4444444 -0.166972
Al core -0.2222222 -0.1111111 -0.0003053
Al core -0.2222222 -0.1111111 0.333028
Al core -0.2222222 -0.1111111 -0.3336387
Al core -0.2222222 0.2222222 -0.0003053
Al core -0.2222222 0.2222222 0.333028
Al core -0.2222222 0.2222222 -0.3336387
Ga core -0.2222222 -0.4444444 -0.0003053
Al core -0.2222222 -0.4444444 0.333028
Al core -0.2222222 -0.4444444 -0.3336387
Al core 0.1111111 -0.1111111 -0.0003053
Al core 0.1111111 -0.1111111 0.333028
Al core 0.1111111 -0.1111111 -0.3336387
Al core 0.1111111 0.2222222 -0.0003053
Al core 0.1111111 0.2222222 0.333028
Al core 0.1111111 0.2222222 -0.3336387
Al core 0.1111111 -0.4444444 -0.0003053
Al core 0.1111111 -0.4444444 0.333028
Al core 0.1111111 -0.4444444 -0.3336387
Al core 0.4444444 -0.1111111 -0.0003053
Al core 0.4444444 -0.1111111 0.333028
Al core 0.4444444 -0.1111111 -0.3336387
Al core 0.4444444 0.2222222 -0.0003053
Al core 0.4444444 0.2222222 0.333028
Al core 0.4444444 0.2222222 -0.3336387
Al core 0.4444444 -0.4444444 -0.0003053
Al core 0.4444444 -0.4444444 0.333028
Ga core 0.4444444 -0.4444444 -0.3336387
N core -0.1111111 -0.2222222 -0.0413613
N core -0.1111111 -0.2222222 0.291972
N core -0.1111111 -0.2222222 -0.3746947
N core -0.1111111 0.1111111 -0.0413613
N core -0.1111111 0.1111111 0.291972
N core -0.1111111 0.1111111 -0.3746947
N core -0.1111111 0.4444444 -0.0413613
N core -0.1111111 0.4444444 0.291972
N core -0.1111111 0.4444444 -0.3746947
N core 0.2222222 -0.2222222 -0.0413613
N core 0.2222222 -0.2222222 0.291972
N core 0.2222222 -0.2222222 -0.3746947
N core 0.2222222 0.1111111 -0.0413613
N core 0.2222222 0.1111111 0.291972
N core 0.2222222 0.1111111 -0.3746947
N core 0.2222222 0.4444444 -0.0413613
N core 0.2222222 0.4444444 0.291972
N core 0.2222222 0.4444444 -0.3746947
N core -0.4444444 -0.2222222 -0.0413613
N core -0.4444444 -0.2222222 0.291972
N core -0.4444444 -0.2222222 -0.3746947
N core -0.4444444 0.1111111 -0.0413613
N core -0.4444444 0.1111111 0.291972
N core -0.4444444 0.1111111 -0.3746947
N core -0.4444444 0.4444444 -0.0413613
N core -0.4444444 0.4444444 0.291972
N core -0.4444444 0.4444444 -0.3746947
N core -0.2222222 -0.1111111 0.1253053
N core -0.2222222 -0.1111111 0.4586387
N core -0.2222222 -0.1111111 -0.208028
N core -0.2222222 0.2222222 0.1253053
N core -0.2222222 0.2222222 0.4586387
N core -0.2222222 0.2222222 -0.208028
N core -0.2222222 -0.4444444 0.1253053
N core -0.2222222 -0.4444444 0.4586387
N core -0.2222222 -0.4444444 -0.208028
N core 0.1111111 -0.1111111 0.1253053
N core 0.1111111 -0.1111111 0.4586387
N core 0.1111111 -0.1111111 -0.208028
N core 0.1111111 0.2222222 0.1253053
N core 0.1111111 0.2222222 0.4586387
N core 0.1111111 0.2222222 -0.208028
N core 0.1111111 -0.4444444 0.1253053
N core 0.1111111 -0.4444444 0.4586387
N core 0.1111111 -0.4444444 -0.208028
N core 0.4444444 -0.1111111 0.1253053
N core 0.4444444 -0.1111111 0.4586387
N core 0.4444444 -0.1111111 -0.208028
N core 0.4444444 0.2222222 0.1253053
N core 0.4444444 0.2222222 0.4586387
N core 0.4444444 0.2222222 -0.208028
N core 0.4444444 -0.4444444 0.1253053
N core 0.4444444 -0.4444444 0.4586387
N core 0.4444444 -0.4444444 -0.208028
species 4
Al core  3.000000000
Ga core  3.000000000
N  core  1.400000000
N  shel -4.400000000
# N - N
buck4
N  shel   N  shel   22764.3   0.1490   74.000000 &
2.0  2.5   5.0  10.0
# Ga core N  shel
buck
Ga core   N  shel   2007.9653  0.327033   0.0000000   0.00  2.19999999999   # 0.04 - radii difference (0.08)
polynomial
1
Ga core   N  shel   0.35 0.0 0.0 &
0.0 2.20
polynomial
5
Ga core   N  shel   1905.77489984 -3684.99648555  &
2869.19539999 -1120.37973460  &
218.90337901   -17.09614738  &
0.0 2.20  2.80
buck
Ga core   N  shel   2510.7794  0.327678  0.0000000        2.80  3.29999999999 # 0.04 - radii difference (0.08)
polynomial
1
Ga core   N  shel   -0.07 0.0 0.0 &
2.80 3.2999999999
polynomial
5
Ga core   N  shel   58312.43505181  -86378.01594393  &
51169.30983879  -15152.37672935  &
2242.89356716    -132.76275538  &
0.0 3.30  3.499999999999
lenn 12 6
Ga core   N  shel   10.421450  0.0  0.00 10.00
# 3-body
exp2 regular
Ga core   N  shel   N  shel &
-0.128 4.72633 1.9562 4.72633 1.9562 &
0.000 12.000  0.000 12.000  0.000 12.000
# END OF GaN -----------------------------------------------

buck
Al core   N  shel   1776.7931  0.327033   0.0000000   0.00  2.19999999999
polynomial
1
Al core   N  shel   0.35 0.0 0.0 &
0.0 2.20
polynomial
5
Al core   N  shel   2032.034156 -3965.360227  &
3110.779192 -1222.377777  &
240.119941  -18.84126698  &
0.0 2.20  2.80
buck
Al core   N  shel   2222.2544  0.327678  0.0000000        2.80  3.29999999999
polynomial
1
Al core   N  shel   -0.07 0.0 0.0 &
2.80 3.2999999999
polynomial
5
Al core   N  shel   -16719.2965  24150.45089  &
-13939.8929  4019.231689  &
-578.87803   33.31894019  &
0.0 3.30  3.499999999999
lenn 12 6
Al core   N  shel   10.421450  0.0  0.00 10.00
exp2 regular
Al core   N  shel   N  shel &
-0.144189 4.72633 1.89240 4.72633 1.89240 &
0.000 12.000  0.000 12.000  0.000 12.000

# spring
spring
N 63.00 250000.00
#
accuracy 20
xtol opt 10
ftol opt 10
gtol opt 10
cutd 4
maxcyc 500
dump every gulpklmc.dump
output cif cryst
