opti conp property full nosymm phon comp
vectors
       31.0439987183         0.0000000000         0.0000000000
        0.0000000000        18.0543003082         0.0000000000
        0.0000000000         0.0000000000         9.3993597031
0 0 0 0 0 0
cartesian
 Na  core  25.869998932  12.036200523  7.049519539            
 Na  core  15.521999359  9.027150154  7.049519539            
 Na  core  10.347999573  12.036200523  4.699679852            
 Na  core  10.347999573  6.018100262  4.699679852            
 Na  core  10.347999573  9.027150154  4.699679852            
 Na  core  25.869998932  15.045249939  7.049519539            
 Na  core  0.000000000  0.000000000  0.000000000            
 Na  core  10.347999573  9.027150154  0.000000000            
 Na  core  20.695999146  0.000000000  4.699679852            
 Na  core  5.173999786  6.018100262  2.349839926            
 Na  core  10.347999573  15.045249939  4.699679852            
 Na  core  5.173999786  15.045249939  7.049519539            
 Na  core  5.173999786  15.045249939  2.349839926            
 Na  core  25.869998932  0.000000000  2.349839926            
 Na  core  0.000000000  6.018100262  0.000000000            
 Na  core  5.173999786  12.036200523  7.049519539            
 Na  core  25.869998932  12.036200523  2.349839926            
 Na  core  20.695999146  9.027150154  0.000000000            
 Na  core  20.695999146  3.009050131  4.699679852            
 Na  core  20.695999146  6.018100262  0.000000000            
 Na  core  0.000000000  3.009050131  4.699679852            
 Na  core  10.347999573  0.000000000  4.699679852            
 Na  core  0.000000000  12.036200523  0.000000000            
 Na  core  25.869998932  0.000000000  7.049519539            
 Na  core  0.000000000  15.045249939  0.000000000            
 Na  core  0.000000000  3.009050131  0.000000000            
 Na  core  5.173999786  6.018100262  7.049519539            
 Na  core  25.869998932  9.027150154  7.049519539            
 Na  core  15.521999359  6.018100262  7.049519539            
 Na  core  15.521999359  12.036200523  7.049519539            
 Na  core  20.695999146  15.045249939  0.000000000            
 Na  core  15.521999359  0.000000000  7.049519539            
 Na  core  20.695999146  9.027150154  4.699679852            
 Na  core  5.173999786  3.009050131  7.049519539            
 Na  core  0.000000000  15.045249939  4.699679852            
 Na  core  15.521999359  3.009050131  7.049519539            
 Na  core  15.521999359  9.027150154  2.349839926            
 Na  core  15.521999359  15.045249939  7.049519539            
 Na  core  0.000000000  6.018100262  4.699679852            
 Na  core  15.521999359  6.018100262  2.349839926            
 Mn  core  2.255864143  16.549781799  6.926387787            
 Mn  core  13.266136169  13.540730476  4.576548100            
 Mn  core  18.440134048  7.522619247  7.172651768            
 Mn  core  13.266136169  7.522619247  4.576548100            
 Mn  core  8.092135429  1.504518986  2.472971439            
 Mn  core  28.788133621  7.522619247  7.172651768            
 Mn  core  28.125864029  16.549781799  4.822811604            
 Mn  core  2.255864143  16.549781799  2.226707935            
 Mn  core  18.440134048  7.522619247  2.472971439            
 Mn  core  2.255864143  10.531681061  6.926387787            
 Mn  core  18.440134048  1.504518986  2.472971439            
 Mn  core  7.429863930  10.531681061  4.822811604            
 Mn  core  18.440134048  1.504518986  7.172651768            
 Mn  core  7.429863930  16.549781799  0.123131596            
 Mn  core  12.603863716  10.531681061  6.926387787            
 Mn  core  28.788133621  1.504518986  7.172651768            
 Mn  core  28.788133621  1.504518986  2.472971439            
 Mn  core  2.918135881  13.540730476  4.576548100            
 Mn  core  8.092135429  13.540730476  7.172651768            
 Mn  core  17.777864456  10.531681061  0.123131596            
 Mn  core  8.092135429  7.522619247  7.172651768            
 Mn  core  22.951862335  10.531681061  6.926387787            
 Mn  core  28.125864029  4.513569355  0.123131596            
 Mn  core  2.918135881  7.522619247  4.576548100            
 Mn  core  18.440134048  13.540730476  2.472971439            
 Mn  core  23.614135742  1.504518986  4.576548100            
 Mn  core  23.614135742  7.522619247  9.276227951            
 Mn  core  8.092135429  13.540730476  2.472971439            
 Mn  core  12.603863716  4.513569355  6.926387787            
 Mn  core  13.266136169  7.522619247  9.276227951            
 Mn  core  28.125864029  10.531681061  0.123131596            
 Mn  core  12.603863716  10.531681061  2.226707935            
 Mn  core  17.777864456  16.549781799  4.822811604            
 Mn  core  7.429863930  4.513569355  4.822811604            
 Mn  core  23.614135742  7.522619247  4.576548100            
 Mn  core  12.603863716  16.549781799  2.226707935            
 Mn  core  28.788133621  13.540730476  2.472971439            
 Mn  core  22.951862335  10.531681061  2.226707935            
 Mn  core  12.603863716  16.549781799  6.926387787            
 Mn  core  2.918135881  1.504518986  4.576548100            
 Fe  core  17.777864456  10.531681061  4.822811604            
 Fe  core  2.918135881  13.540730476  9.276227951            
 Fe  core  22.951862335  16.549781799  6.926387787            
 Fe  core  28.788133621  13.540730476  7.172651768            
 Fe  core  28.125864029  16.549781799  0.123131596            
 Fe  core  13.266136169  1.504518986  4.576548100            
 Fe  core  12.603863716  4.513569355  2.226707935            
 Fe  core  22.951862335  4.513569355  2.226707935            
 Fe  core  23.614135742  13.540730476  9.276227951            
 Fe  core  22.951862335  4.513569355  6.926387787            
 Fe  core  8.092135429  7.522619247  2.472971439            
 Fe  core  7.429863930  10.531681061  0.123131596            
 Fe  core  28.788133621  7.522619247  2.472971439            
 Fe  core  13.266136169  1.504518986  9.276227951            
 Fe  core  2.918135881  7.522619247  9.276227951            
 Fe  core  2.255864143  4.513569355  2.226707935            
 Fe  core  8.092135429  1.504518986  7.172651768            
 Fe  core  23.614135742  1.504518986  9.276227951            
 Fe  core  23.614135742  13.540730476  4.576548100            
 Fe  core  17.777864456  4.513569355  4.822811604            
 Fe  core  18.440134048  13.540730476  7.172651768            
 Fe  core  22.951862335  16.549781799  2.226707935            
 Fe  core  2.918135881  1.504518986  9.276227951            
 Fe  core  7.429863930  4.513569355  0.123131596            
 Fe  core  7.429863930  16.549781799  4.822811604            
 Fe  core  17.777864456  16.549781799  0.123131596            
 Fe  core  2.255864143  10.531681061  2.226707935            
 Fe  core  2.255864143  4.513569355  6.926387787            
 Fe  core  28.125864029  4.513569355  4.822811604            
 Fe  core  17.777864456  4.513569355  0.123131596            
 Fe  core  13.266136169  13.540730476  9.276227951            
 Fe  core  28.125864029  10.531681061  4.822811604            
P         0.978910387         1.504518986         1.965406060                                                                                                                                           
P        30.065088272        16.549781799         7.433953285                                                                                                                                           
P         4.195089340        16.549781799         4.315246105                                                                                                                                           
P         6.152910233         1.504518986         0.384433866                                                                                                                                           
P        30.065088272         4.513569355         7.433953285                                                                                                                                           
P         4.195089340         4.513569355         4.315246105                                                                                                                                           
P         0.978910387         1.504518986         6.665086269                                                                                                                                           
P        30.065088272        16.549781799         2.734273672                                                                                                                                           
P         4.195089340        16.549781799         9.014925957                                                                                                                                           
P         6.152910233         1.504518986         5.084113598                                                                                                                                           
P        30.065088272         4.513569355         2.734273672                                                                                                                                           
P         4.195089340         4.513569355         9.014925957                                                                                                                                           
P         0.978910387         7.522619247         1.965406060                                                                                                                                           
P        30.065088272        10.531681061         7.433953285                                                                                                                                           
P         4.195089340        10.531681061         4.315246105                                                                                                                                           
P         6.152910233         7.522619247         0.384433866                                                                                                                                           
P         0.978910387        13.540730476         1.965406060                                                                                                                                           
P         6.152910233        13.540730476         0.384433866                                                                                                                                           
P         0.978910387         7.522619247         6.665086269                                                                                                                                           
P        30.065088272        10.531681061         2.734273672                                                                                                                                           
P         4.195089340        10.531681061         9.014925957                                                                                                                                           
P         6.152910233         7.522619247         5.084113598                                                                                                                                           
P         0.978910387        13.540730476         6.665086269                                                                                                                                           
P         6.152910233        13.540730476         5.084113598                                                                                                                                           
P        11.326910019         1.504518986         1.965406060                                                                                                                                           
P        19.717088699        16.549781799         7.433953285                                                                                                                                           
P        24.891088486        16.549781799         4.315246105                                                                                                                                           
P        16.500909805         1.504518986         0.384433866                                                                                                                                           
P        19.717088699         4.513569355         7.433953285                                                                                                                                           
P        24.891088486         4.513569355         4.315246105                                                                                                                                           
P        11.326910019         1.504518986         6.665086269                                                                                                                                           
P        19.717088699        16.549781799         2.734273672                                                                                                                                           
P        24.891088486        16.549781799         9.014925957                                                                                                                                           
P        16.500909805         1.504518986         5.084113598                                                                                                                                           
P        19.717088699         4.513569355         2.734273672                                                                                                                                           
P        24.891088486         4.513569355         9.014925957                                                                                                                                           
P        11.326910019         7.522619247         1.965406060                                                                                                                                           
P        19.717088699        10.531681061         7.433953285                                                                                                                                           
P        24.891088486        10.531681061         4.315246105                                                                                                                                           
P        16.500909805         7.522619247         0.384433866                                                                                                                                           
P        11.326910019        13.540730476         1.965406060                                                                                                                                           
P        16.500909805        13.540730476         0.384433866                                                                                                                                           
P        11.326910019         7.522619247         6.665086269                                                                                                                                           
P        19.717088699        10.531681061         2.734273672                                                                                                                                           
P        24.891088486        10.531681061         9.014925957                                                                                                                                           
P        16.500909805         7.522619247         5.084113598                                                                                                                                           
P        11.326910019        13.540730476         6.665086269                                                                                                                                           
P        16.500909805        13.540730476         5.084113598                                                                                                                                           
P        21.674909592         1.504518986         1.965406060                                                                                                                                           
P         9.369089127        16.549781799         7.433953285                                                                                                                                           
P        14.543088913        16.549781799         4.315246105                                                                                                                                           
P        26.848909378         1.504518986         0.384433866                                                                                                                                           
P         9.369089127         4.513569355         7.433953285                                                                                                                                           
P        14.543088913         4.513569355         4.315246105                                                                                                                                           
P        21.674909592         1.504518986         6.665086269                                                                                                                                           
P         9.369089127        16.549781799         2.734273672                                                                                                                                           
P        14.543088913        16.549781799         9.014925957                                                                                                                                           
P        26.848909378         1.504518986         5.084113598                                                                                                                                           
P         9.369089127         4.513569355         2.734273672                                                                                                                                           
P        14.543088913         4.513569355         9.014925957                                                                                                                                           
P        21.674909592         7.522619247         1.965406060                                                                                                                                           
P         9.369089127        10.531681061         7.433953285                                                                                                                                           
P        14.543088913        10.531681061         4.315246105                                                                                                                                           
P        26.848909378         7.522619247         0.384433866                                                                                                                                           
P        21.674909592        13.540730476         1.965406060                                                                                                                                           
P        26.848909378        13.540730476         0.384433866                                                                                                                                           
P        21.674909592         7.522619247         6.665086269                                                                                                                                           
P         9.369089127        10.531681061         2.734273672                                                                                                                                           
P        14.543088913        10.531681061         9.014925957                                                                                                                                           
P        26.848909378         7.522619247         5.084113598                                                                                                                                           
P        21.674909592        13.540730476         6.665086269                                                                                                                                           
P        26.848909378        13.540730476         5.084113598                                                                                                                                           
O         1.006850004         1.504518986         3.474943399                                                                                                                                           
O        30.037149429        16.549781799         5.924416065                                                                                                                                           
O         4.167150021        16.549781799         5.824783325                                                                                                                                           
O         6.180850029         1.504518986         8.274255753                                                                                                                                           
O        30.037149429         4.513569355         5.924416065                                                                                                                                           
O         4.167150021         4.513569355         5.824783325                                                                                                                                           
O         1.006850004         1.504518986         8.174623489                                                                                                                                           
O        30.037149429        16.549781799         1.224736452                                                                                                                                           
O         4.167150021        16.549781799         1.125102878                                                                                                                                           
O         6.180850029         1.504518986         3.574576378                                                                                                                                           
O        30.037149429         4.513569355         1.224736452                                                                                                                                           
O         4.167150021         4.513569355         1.125102878                                                                                                                                           
O         1.006850004         7.522619247         3.474943399                                                                                                                                           
O        30.037149429        10.531681061         5.924416065                                                                                                                                           
O         4.167150021        10.531681061         5.824783325                                                                                                                                           
O         6.180850029         7.522619247         8.274255753                                                                                                                                           
O         1.006850004        13.540730476         3.474943399                                                                                                                                           
O         6.180850029        13.540730476         8.274255753                                                                                                                                           
O         1.006850004         7.522619247         8.174623489                                                                                                                                           
O        30.037149429        10.531681061         1.224736452                                                                                                                                           
O         4.167150021        10.531681061         1.125102878                                                                                                                                           
O         6.180850029         7.522619247         3.574576378                                                                                                                                           
O         1.006850004        13.540730476         8.174623489                                                                                                                                           
O         6.180850029        13.540730476         3.574576378                                                                                                                                           
O        11.354849815         1.504518986         3.474943399                                                                                                                                           
O        19.689149857        16.549781799         5.924416065                                                                                                                                           
O        24.863149643        16.549781799         5.824783325                                                                                                                                           
O        16.528848648         1.504518986         8.274255753                                                                                                                                           
O        19.689149857         4.513569355         5.924416065                                                                                                                                           
O        24.863149643         4.513569355         5.824783325                                                                                                                                           
O        11.354849815         1.504518986         8.174623489                                                                                                                                           
O        19.689149857        16.549781799         1.224736452                                                                                                                                           
O        24.863149643        16.549781799         1.125102878                                                                                                                                           
O        16.528848648         1.504518986         3.574576378                                                                                                                                           
O        19.689149857         4.513569355         1.224736452                                                                                                                                           
O        24.863149643         4.513569355         1.125102878                                                                                                                                           
O        11.354849815         7.522619247         3.474943399                                                                                                                                           
O        19.689149857        10.531681061         5.924416065                                                                                                                                           
O        24.863149643        10.531681061         5.824783325                                                                                                                                           
O        16.528848648         7.522619247         8.274255753                                                                                                                                           
O        11.354849815        13.540730476         3.474943399                                                                                                                                           