opti
name
CeO2
vectors
        8.8729000092         0.0000000000         0.0000000000
        0.0000000000         9.4323997498         0.0000000000
        0.0000000000         0.0000000000         8.5658998489
1 1 1 0 0 0
cartesian
 Tc  core  1.067409892  4.777510527  3.569153444  0 1 0 1 1 1  
 Mn  core  5.503859831  2.296789285  6.424424887  0 1 0 1 1 1  
 Mn  core  2.993627784  2.419410590  7.852103623  0 1 0 1 1 1  
 Mn  core  2.993627784  7.135610465  2.141474962  0 1 0 1 1 1  
 Mn  core  1.067409892  4.777510527  0.713796417  0 1 0 1 1 1  
 Mn  core  7.430077788  9.371089097  2.141474962  0 1 0 1 1 1  
 Mn  core  5.503859831  7.012989160  0.713796417  0 1 0 1 1 1  
 Mn  core  7.430077788  9.371089097  7.852103623  0 1 0 1 1 1  
 Mn  core  1.067409892  4.777510527  6.424424887  0 1 0 1 1 1  
 Mn  core  7.430077788  9.371089097  4.996746150  0 1 0 1 1 1  
 Mn  core  2.993627784  2.419410590  4.996746150  0 1 0 1 1 1  
 Mn  core  7.430077788  4.654889223  2.141474962  0 1 0 1 1 1  
 Mn  core  7.430077788  4.654889223  4.996746150  0 1 0 1 1 1  
 Mn  core  7.430077788  4.654889223  7.852103623  0 1 0 1 1 1  
 Mn  core  1.067409892  0.061310600  6.424424887  0 1 0 1 1 1  
 Mn  core  5.503859831  2.296789285  0.713796417  0 1 0 1 1 1  
 Mn  core  1.067409892  0.061310600  3.569153444  0 1 0 1 1 1  
 Mn  core  5.503859831  7.012989160  3.569153444  0 1 0 1 1 1  
 Mn  core  5.503859831  2.296789285  3.569153444  0 1 0 1 1 1  
 Mn  core  2.993627784  7.135610465  4.996746150  0 1 0 1 1 1  
 Mn  core  2.993627784  7.135610465  7.852103623  0 1 0 1 1 1  
 Mn  core  5.503859831  7.012989160  6.424424887  0 1 0 1 1 1  
 Mn  core  1.067409892  0.061310600  0.713796417  0 1 0 1 1 1  
 Mn  core  2.993627784  2.419410590  2.141474962  0 1 0 1 1 1  
 Li  core  7.210029845  8.016219370  1.800038235  0 1 0 1 1 1  
O      0.225105473         0.942768361         2.141474962    0 1 0 1 1 1                                                                                                                               
O      3.835932121         3.300868158         0.713796417    0 1 0 1 1 1                                                                                                                               
O      4.661555494         1.415331576         2.141474962    0 1 0 1 1 1                                                                                                                               
O      8.272382125         3.773431654         0.713796417    0 1 0 1 1 1                                                                                                                               
O      2.234107379         1.470982693         0.713796417    0 1 0 1 1 1                                                                                                                               
O      1.826930099         3.829082771         2.141474962    0 1 0 1 1 1                                                                                                                               
O      6.670557383         0.887117174         0.713796417    0 1 0 1 1 1                                                                                                                               
O      6.263380236         3.245217041         2.141474962    0 1 0 1 1 1                                                                                                                               
O      0.225105473         5.658968376         2.141474962    0 1 0 1 1 1                                                                                                                               
O      3.835932121         8.017068314         0.713796417    0 1 0 1 1 1                                                                                                                               
O      4.661555494         6.131531311         2.141474962    0 1 0 1 1 1                                                                                                                               
O      8.272382125         8.489631248         0.713796417    0 1 0 1 1 1                                                                                                                               
O      2.234107379         6.187182709         0.713796417    0 1 0 1 1 1                                                                                                                               
O      1.826930099         8.545282646         2.141474962    0 1 0 1 1 1                                                                                                                               
O      6.670557383         5.603316979         0.713796417    0 1 0 1 1 1                                                                                                                               
O      6.263380236         7.961416916         2.141474962    0 1 0 1 1 1                                                                                                                               
O      0.225105473         0.942768361         4.996746150    0 1 0 1 1 1                                                                                                                               
O      3.835932121         3.300868158         3.569153444    0 1 0 1 1 1                                                                                                                               
O      4.661555494         1.415331576         4.996746150    0 1 0 1 1 1                                                                                                                               
O      8.272382125         3.773431654         3.569153444    0 1 0 1 1 1                                                                                                                               
O      2.234107379         1.470982693         3.569153444    0 1 0 1 1 1                                                                                                                               
O      1.826930099         3.829082771         4.996746150    0 1 0 1 1 1                                                                                                                               
O      6.670557383         0.887117174         3.569153444    0 1 0 1 1 1                                                                                                                               
O      6.263380236         3.245217041         4.996746150    0 1 0 1 1 1                                                                                                                               
O      0.225105473         5.658968376         4.996746150    0 1 0 1 1 1                                                                                                                               
O      3.835932121         8.017068314         3.569153444    0 1 0 1 1 1                                                                                                                               
O      4.661555494         6.131531311         4.996746150    0 1 0 1 1 1                                                                                                                               
O      8.272382125         8.489631248         3.569153444    0 1 0 1 1 1                                                                                                                               
O      2.234107379         6.187182709         3.569153444    0 1 0 1 1 1                                                                                                                               
O      1.826930099         8.545282646         4.996746150    0 1 0 1 1 1                                                                                                                               
O      6.670557383         5.603316979         3.569153444    0 1 0 1 1 1                                                                                                                               
O      6.263380236         7.961416916         4.996746150    0 1 0 1 1 1                                                                                                                               
O      0.225105473         0.942768361         7.852103623    0 1 0 1 1 1                                                                                                                               
O      3.835932121         3.300868158         6.424424887    0 1 0 1 1 1                                                                                                                               
O      4.661555494         1.415331576         7.852103623    0 1 0 1 1 1                                                                                                                               
O      8.272382125         3.773431654         6.424424887    0 1 0 1 1 1                                                                                                                               
O      2.234107379         1.470982693         6.424424887    0 1 0 1 1 1                                                                                                                               
O      1.826930099         3.829082771         7.852103623    0 1 0 1 1 1                                                                                                                               
O      6.670557383         0.887117174         6.424424887    0 1 0 1 1 1                                                                                                                               
O      6.263380236         3.245217041         7.852103623    0 1 0 1 1 1                                                                                                                               
O      0.225105473         5.658968376         7.852103623    0 1 0 1 1 1                                                                                                                               
O      3.835932121         8.017068314         6.424424887    0 1 0 1 1 1                                                                                                                               
O      4.661555494         6.131531311         7.852103623    0 1 0 1 1 1                                                                                                                               
O      8.272382125         8.489631248         6.424424887    0 1 0 1 1 1                                                                                                                               
O      2.234107379         6.187182709         6.424424887    0 1 0 1 1 1                                                                                                                               
O      1.826930099         8.545282646         7.852103623    0 1 0 1 1 1                                                                                                                               
O      6.670557383         5.603316979         6.424424887    0 1 0 1 1 1                                                                                                                               
O      6.263380236         7.961416916         7.852103623    0 1 0 1 1 1                                                                                                                               
species
Tc core  1.971
Tc shel  1.029
Mn    core    4
O     core    0.513000
O     shel   -2.513000
Li    core    1
buck
Mn   core O shel  3087.82600     0.264200  0.000000      0.00 25.00
Li   core O shel   479.837 0.3000  0.00 0.0 25.0
Tc   shel O shel  1686.125 0.2962  0.00 0.0 25.0
O     shel O     shel  22.4100000     0.693700  32.32000      0.00 25.00
spring
O      20.530000
Tc 148
#######   OPTIONS
accuracy   10.00000
xtol opt   8.000000
gtol opt   8.000000
ftol opt   8.000000
maxcyc opt  1000000
#switch rfo 0.03
