opti conv conj                                                           
cartesian   4
Si    core   1.000000000   1.0000000000   1.0000000000   2.0 1.0 0.0
Si    core   1.000000000   1.0000000000   1.0000000000   2.0 1.0 0.0
Si    core   1.000000000   1.0000000000   1.0000000000   2.0 1.0 0.0
Si    core   1.000000000   1.0000000000   1.0000000000   2.0 1.0 0.0
O     shel   1.000000000   1.0000000000   1.0000000000  -2.0 1.0 0.0
O     shel   1.000000000   1.0000000000   1.0000000000  -2.0 1.0 0.0
O     shel   1.000000000   1.0000000000   1.0000000000  -2.0 1.0 0.0
O     shel   1.000000000   1.0000000000   1.0000000000  -2.0 1.0 0.0
species
Si  core  2.00000
O   core -2.00000
lenn 12 6
Si  core Mg core  1.0 0.0 0.0 12.0
Si  core O  core 10.0 0.0 0.0 12.0
O   core O  core  1.0 0.0 0.0 12.0
buckingham
O   core O  core 22764.0    0.149    27.88    0.0 12.0
Si  core O  core  1428.5    0.29453   0.0     0.0 12.0

xtol opt   7.000000
gtol opt   7.000000
ftol opt   7.000000
switch rfo 0.05
maxcyc 10000
 
  species
  Si  core  2.00000
  O   core  0.86902
  O   shel -2.86902
  buckingham
  O   shel O  shel 22764.0    0.149    27.88    0.0 12.0
  Si  core O  shel  1428.5    0.29453   0.0     0.0 12.0
  spring
  O    74.92 
 xtol opt   8.000000
 gtol opt   8.000000
 ftol opt   8.000000         
 switch rfo 0.02

