opti fbfgs conp property phon comp
vectors
       11.4315996170         0.0000000000         0.0000000000
        0.0000000000        11.4315996170         0.0000000000
        0.0000000000         0.0000000000        11.4315996170
0 0 0 0 0 0
cartesian
 Fe  core  4.286849976  10.002649307  7.144749641            
 Fe  core  10.002649307  1.428949952  4.286849976            
 Fe  core  7.144749641  7.144749641  7.144749641            
 Fe  core  4.286849976  1.428949952  7.144749641            
 Fe  core  7.144749641  4.286849976  1.428949952            
 Fe  core  10.002649307  1.428949952  10.002649307            
 Fe  core  7.144749641  10.002649307  10.002649307            
 Fe  core  4.286849976  1.428949952  4.286849976            
 Fe  core  10.002649307  10.002649307  7.144749641            
 Fe  core  4.286849976  1.428949952  1.428949952            
 Fe  core  7.144749641  7.144749641  10.002649307            
 Li  core  1.428949952  7.144749641  10.002649307            
 Li  core  1.428949952  4.286849976  4.286849976            
 Li  core  10.002649307  7.144749641  10.002649307            
 Li  core  1.428949952  10.002649307  10.002649307            
 Li  core  7.144749641  1.428949952  10.002649307            
 Li  core  1.428949952  4.286849976  7.144749641            
 Li  core  4.286849976  4.286849976  1.428949952            
 Li  core  7.144749641  10.002649307  4.286849976            
 Li  core  7.144749641  7.144749641  4.286849976            
 Li  core  1.428949952  1.428949952  1.428949952            
 Li  core  1.428949952  10.002649307  4.286849976            
 Li  core  4.286849976  4.286849976  4.286849976            
 Li  core  10.002649307  10.002649307  10.002649307            
 Li  core  10.002649307  10.002649307  1.428949952            
 Li  core  4.286849976  10.002649307  4.286849976            
 Li  core  1.428949952  7.144749641  4.286849976            
 Li  core  4.286849976  10.002649307  10.002649307            
 Li  core  4.286849976  10.002649307  1.428949952            
 Li  core  7.144749641  10.002649307  1.428949952            
 Li  core  10.002649307  7.144749641  4.286849976            
 Li  core  7.144749641  4.286849976  4.286849976            
 Li  core  4.286849976  4.286849976  7.144749641            
 Li  core  10.002649307  4.286849976  7.144749641            
 Li  core  7.144749641  7.144749641  1.428949952            
 Li  core  1.428949952  7.144749641  1.428949952            
 Li  core  1.428949952  1.428949952  4.286849976            
 Li  core  4.286849976  4.286849976  10.002649307            
 Li  core  1.428949952  4.286849976  10.002649307            
 Li  core  4.286849976  7.144749641  1.428949952            
 Li  core  10.002649307  4.286849976  4.286849976            
 Li  core  7.144749641  1.428949952  7.144749641            
 Li  core  10.002649307  7.144749641  7.144749641            
 Li  core  7.144749641  4.286849976  7.144749641            
 Li  core  1.428949952  10.002649307  1.428949952            
 Li  core  7.144749641  1.428949952  4.286849976            
 Li  core  1.428949952  10.002649307  7.144749641            
 Li  core  1.428949952  7.144749641  7.144749641            
 Li  core  4.286849976  7.144749641  7.144749641            
 Li  core  10.002649307  4.286849976  10.002649307            
 Li  core  4.286849976  7.144749641  4.286849976            
 Li  core  4.286849976  7.144749641  10.002649307            
 Li  core  10.002649307  10.002649307  4.286849976            
S     0.000000000         2.857899904         2.857899904                                                                                                                                               
S     0.000000000         8.573699951         8.573699951                                                                                                                                               
S     0.000000000         8.573699951         2.857899904                                                                                                                                               
S     0.000000000         2.857899904         8.573699951                                                                                                                                               
S     2.857899904         0.000000000         2.857899904                                                                                                                                               
S     8.573699951         0.000000000         8.573699951                                                                                                                                               
S     2.857899904         0.000000000         8.573699951                                                                                                                                               
S     8.573699951         0.000000000         2.857899904                                                                                                                                               
S     2.857899904         2.857899904         0.000000000                                                                                                                                               
S     8.573699951         8.573699951         0.000000000                                                                                                                                               
S     8.573699951         2.857899904         0.000000000                                                                                                                                               
S     2.857899904         8.573699951         0.000000000                                                                                                                                               
S     0.000000000         5.715799809         5.715799809                                                                                                                                               
S     0.000000000         0.000000000         0.000000000                                                                                                                                               
S     0.000000000         0.000000000         5.715799809                                                                                                                                               
S     0.000000000         5.715799809         0.000000000                                                                                                                                               
S     2.857899904         2.857899904         5.715799809                                                                                                                                               
S     8.573699951         2.857899904         5.715799809                                                                                                                                               
S     2.857899904         5.715799809         2.857899904                                                                                                                                               
S     8.573699951         5.715799809         2.857899904                                                                                                                                               
S     2.857899904         8.573699951         5.715799809                                                                                                                                               
S     5.715799809         0.000000000         5.715799809                                                                                                                                               
S     5.715799809         0.000000000         0.000000000                                                                                                                                               
S     5.715799809         2.857899904         2.857899904                                                                                                                                               
S     5.715799809         8.573699951         2.857899904                                                                                                                                               
S     2.857899904         5.715799809         8.573699951                                                                                                                                               
S     5.715799809         2.857899904         8.573699951                                                                                                                                               
S     5.715799809         5.715799809         0.000000000                                                                                                                                               
S     5.715799809         8.573699951         8.573699951                                                                                                                                               
S     8.573699951         5.715799809         8.573699951                                                                                                                                               
S     8.573699951         8.573699951         5.715799809                                                                                                                                               
S     5.715799809         5.715799809         5.715799809                                                                                                                                               
species
Fe     core    2.000000
Li     core    0.295000
Li     shel    0.705000
S      core    1.000000
S      shel   -3.000000
buck
Fe    core S     shel  490.50545     0.424678  0.0000000      0.00 25.00
buck
Li    shel Li    shel  1153.8000     0.136400  49.328810      0.00 25.00
buck
Li    shel S     shel  431.89766     0.378971  0.0000000      0.00 25.00
buck
S     shel S     shel  11338.472     0.127089 0.10520327E-03  0.00 25.00
morse
Li    shel S     shel 0.042102 1.5610      2.47500  0.0000 0.000  25.000
lenn 12 6
S shel S  shel 100. 0. 0. 12.
lenn 12 6
S shel Li shel 100. 0. 0. 12.
lenn 12 6
S shel Fe core 100. 0. 0. 12.
lenn 12 6
Li shel Li shel 1000. 0. 0. 12.
spring
S      16.365031     100000.000
spring
Li     284.20788     10000.000
accuracy 10.000  4 50  8.000
xtol opt   6.000000
gtol opt   5.000000
ftol opt   8.000000
maxcyc opt      1000
switch_min rfo   gnorm     0.010
stepmx 0.2
output cif cryst.cif
#output xyz run/X904
