opti conp property full nosymm phon dist comp
vectors
    31.0439987183         0.0000000000         0.0000000000
    0.0000000000        18.0543003082         0.0000000000
    0.0000000000         0.0000000000        14.0990390778
0 0 0 0 0 0
cartesian
Na c1     0.000000000         0.000000000         0.000000000
Na c1     5.173999941         0.000000000         2.349839916
Na c1     0.000000000         3.009050141         0.000000000
Na c1     5.173999941         3.009050141         2.349839916
Na c1     0.000000000         0.000000000         4.699679833
Na c1     0.000000000         0.000000000         9.399359665
Na c1     5.173999941         0.000000000         7.049519539
Na c1     5.173999941         0.000000000        11.749198951
Na c1     0.000000000         3.009050141         9.399359665
Na c1     0.000000000         3.009050141         4.699679833
Na c1     5.173999941         3.009050141        11.749198951
Na c1     5.173999941         3.009050141         7.049519539
Na c1     0.000000000         6.018100282         0.000000000
Na c1     0.000000000        12.036200564         0.000000000
Na c1     5.173999941        12.036200564         2.349839916
Na c1     5.173999941         6.018100282         2.349839916
Na c1     0.000000000         9.027150154         0.000000000
Na c1     0.000000000        15.045249898         0.000000000
Na c1     5.173999941        15.045249898         2.349839916
Na c1     5.173999941         9.027150154         2.349839916
Na c1     0.000000000         6.018100282         4.699679833
Na c1     0.000000000        12.036200564         9.399359665
Na c1     5.173999941        12.036200564         7.049519539
Na c1     5.173999941         6.018100282        11.749198951
Na c1     0.000000000         9.027150154         9.399359665
Na c1     0.000000000        15.045249898         4.699679833
Na c1     5.173999941        15.045249898        11.749198951
Na c1     5.173999941         9.027150154         7.049519539
Na c1     0.000000000         6.018100282         9.399359665
Na c1     0.000000000        12.036200564         4.699679833
Na c1     5.173999941        12.036200564        11.749198951
Na c1     5.173999941         6.018100282         7.049519539
Na c1     0.000000000         9.027150154         4.699679833
Na c1     0.000000000        15.045249898         9.399359665
Na c1     5.173999941        15.045249898         7.049519539
Na c1     5.173999941         9.027150154        11.749198951
Na c1    10.347999881         0.000000000         0.000000000
Na c1    20.695999762         0.000000000         0.000000000
Na c1    25.869998315         0.000000000         2.349839916
Na c1    15.521999359         0.000000000         2.349839916
Na c1    20.695999762         3.009050141         0.000000000
Na c1    10.347999881         3.009050141         0.000000000
Na c1    15.521999359         3.009050141         2.349839916
Na c1    25.869998315         3.009050141         2.349839916
Na c1    10.347999881         0.000000000         4.699679833
Na c1    20.695999762         0.000000000         9.399359665
Na c1    25.869998315         0.000000000         7.049519539
Na c1    15.521999359         0.000000000        11.749198951
Na c1    20.695999762         3.009050141         9.399359665
Na c1    10.347999881         3.009050141         4.699679833
Na c1    15.521999359         3.009050141        11.749198951
Na c1    25.869998315         3.009050141         7.049519539
Na c1    10.347999881         0.000000000         9.399359665
Na c1    20.695999762         0.000000000         4.699679833
Na c1    25.869998315         0.000000000        11.749198951
Na c1    15.521999359         0.000000000         7.049519539
Na c1    20.695999762         3.009050141         4.699679833
Na c1    10.347999881         3.009050141         9.399359665
Na c1    15.521999359         3.009050141         7.049519539
Na c1    25.869998315         3.009050141        11.749198951
Na c1    10.347999881         6.018100282         0.000000000
Na c1    20.695999762        12.036200564         0.000000000
Na c1    25.869998315        12.036200564         2.349839916
Na c1    15.521999359         6.018100282         2.349839916
Na c1    20.695999762         9.027150154         0.000000000
Na c1    10.347999881        15.045249898         0.000000000
Na c1    15.521999359        15.045249898         2.349839916
Na c1    25.869998315         9.027150154         2.349839916
Na c1    10.347999881         6.018100282         4.699679833
Na c1    20.695999762        12.036200564         9.399359665
Na c1    25.869998315        12.036200564         7.049519539
Na c1    15.521999359         6.018100282        11.749198951
Na x1    20.695999762         9.027150154         9.399359665
Na x1    10.347999881        15.045249898         4.699679833
Na x1    15.521999359        15.045249898        11.749198951
Na x1    25.869998315         9.027150154         7.049519539
Na x1    10.347999881         6.018100282         9.399359665
Na x1    20.695999762        12.036200564         4.699679833
Na x1    25.869998315        12.036200564        11.749198951
Na x1    15.521999359         6.018100282         7.049519539
Na x1    20.695999762         9.027150154         4.699679833
Na x1    10.347999881        15.045249898         9.399359665
Na x1    15.521999359        15.045249898         7.049519539
Na x1    25.869998315         9.027150154        11.749198951
Na x1    10.347999881        12.036200564         0.000000000
Na x1    20.695999762         6.018100282         0.000000000
Na x1    25.869998315         6.018100282         2.349839916
Na x1    15.521999359        12.036200564         2.349839916
Na x1    20.695999762        15.045249898         0.000000000
Na x1    10.347999881         9.027150154         0.000000000
Na x1    15.521999359         9.027150154         2.349839916
Na x1    25.869998315        15.045249898         2.349839916
Na x1    10.347999881        12.036200564         4.699679833
Na x1    20.695999762         6.018100282         9.399359665
Na x1    25.869998315         6.018100282         7.049519539
Na x1    15.521999359        12.036200564        11.749198951
Na x1    20.695999762        15.045249898         9.399359665
Na x1    10.347999881         9.027150154         4.699679833
Na x1    15.521999359         9.027150154        11.749198951
Na x1    25.869998315        15.045249898         7.049519539
Na x1    10.347999881        12.036200564         9.399359665
Na x1    20.695999762         6.018100282         4.699679833
Na x1    25.869998315         6.018100282        11.749198951
Na x1    15.521999359        12.036200564         7.049519539
Na x1    20.695999762        15.045249898         4.699679833
Na x1    10.347999881         9.027150154         9.399359665
Na x1    15.521999359         9.027150154         7.049519539
Na x1    25.869998315        15.045249898        11.749198951
Mn c2     2.918136011         1.504525071         4.576548241
Mn c2    28.125863401        16.549775641         9.522491257
Mn c2     2.255863698        16.549775641         6.926387948
Mn c2     8.092135720         1.504525071        11.872330543
Mn c2    28.125863401         4.513575077         9.522491257
Mn c2     2.255863698         4.513575077         6.926387948
Mn c2     2.918136011         1.504525071         9.276228074
Mn c2    28.125863401        16.549775641         4.822811004
Mn c2     2.255863698        16.549775641        11.626067360
Mn c2     8.092135720         1.504525071         7.172651130
Mn c2    28.125863401         4.513575077         4.822811004
Mn c2     2.255863698         4.513575077        11.626067360
Mn c2     2.918136011         1.504525071        13.975907486
Mn c2    28.125863401        16.549775641         0.123131447
Mn c2     2.255863698        16.549775641         2.226708325
Mn c2     8.092135720         1.504525071         2.472971298
Mn c2    28.125863401         4.513575077         0.123131447
Mn c2     2.255863698         4.513575077         2.226708325
Mn c2     2.918136011         7.522624949         4.576548241
Mn c2    28.125863401        10.531674821         9.522491257
Mn c2     2.255863698        10.531674821         6.926387948
Mn c2     8.092135720         7.522624949        11.872330543
Mn c2     2.918136011        13.540725231         4.576548241
Mn c2     8.092135720        13.540725231        11.872330543
Mn c2     2.918136011         7.522624949         9.276228074
Mn c2    28.125863401        10.531674821         4.822811004
Mn c2     2.255863698        10.531674821        11.626067360
Mn c2     8.092135720         7.522624949         7.172651130
Mn c2     2.918136011        13.540725231         9.276228074
Mn c2     8.092135720        13.540725231         7.172651130
Mn c2     2.918136011         7.522624949        13.975907486
Mn c2    28.125863401        10.531674821         0.123131447
Mn c2     2.255863698        10.531674821         2.226708325
Mn c2     8.092135720         7.522624949         2.472971298
Mn c2     2.918136011        13.540725231        13.975907486
Mn c2     8.092135720        13.540725231         2.472971298
Mn c2    13.266135198         1.504525071         4.576548241
Mn c2    17.777862595        16.549775641         9.522491257
Mn c2    22.951862998        16.549775641         6.926387948
Mn c2    18.440134676         1.504525071        11.872330543
Mn c2    17.777862595         4.513575077         9.522491257
Mn c2    22.951862998         4.513575077         6.926387948
Mn c2    13.266135198         1.504525071         9.276228074
Mn c2    17.777862595        16.549775641         4.822811004
Mn c2    22.951862998        16.549775641        11.626067360
Mn c2    18.440134676         1.504525071         7.172651130
Mn c2    17.777862595         4.513575077         4.822811004
Mn c2    22.951862998         4.513575077        11.626067360
Mn c2    13.266135198         1.504525071        13.975907486
Mn c2    17.777862595        16.549775641         0.123131447
Mn c2    22.951862998        16.549775641         2.226708325
Mn c2    18.440134676         1.504525071         2.472971298
Mn c2    17.777862595         4.513575077         0.123131447
Mn c2    22.951862998         4.513575077         2.226708325
Mn c2    13.266135198         7.522624949         4.576548241
Mn c2    17.777862595        10.531674821         9.522491257
Mn c2    22.951862998        10.531674821         6.926387948
Mn c2    18.440134676         7.522624949        11.872330543
Mn c2    13.266135198        13.540725231         4.576548241
Mn c2    18.440134676        13.540725231        11.872330543
Mn c2    13.266135198         7.522624949         9.276228074
Mn c2    17.777862595        10.531674821         4.822811004
Mn c2    22.951862998        10.531674821        11.626067360
Mn c2    18.440134676         7.522624949         7.172651130
Mn c2    13.266135198        13.540725231         9.276228074
Mn c2    18.440134676        13.540725231         7.172651130
Mn c2    13.266135198         7.522624949        13.975907486
Mn c2    17.777862595        10.531674821         0.123131447
Mn c2    22.951862998        10.531674821         2.226708325
Mn c2    18.440134676         7.522624949         2.472971298
Mn c2    13.266135198        13.540725231        13.975907486
Mn c2    18.440134676        13.540725231         2.472971298
Fe c2    23.614135079         1.504525071         4.576548241
Fe c2     7.429863639        16.549775641         9.522491257
Fe c2    12.603863117        16.549775641         6.926387948
Fe c2    28.788135482         1.504525071        11.872330543
Fe c2     7.429863639         4.513575077         9.522491257
Fe c2    12.603863117         4.513575077         6.926387948
Fe c2    23.614135079         1.504525071         9.276228074
Fe c2     7.429863639        16.549775641         4.822811004
Fe c2    12.603863117        16.549775641        11.626067360
Fe c2    28.788135482         1.504525071         7.172651130
Fe c2     7.429863639         4.513575077         4.822811004
Fe c2    12.603863117         4.513575077        11.626067360
Fe c2    23.614135079         1.504525071        13.975907486
Fe c2     7.429863639        16.549775641         0.123131447
Fe c2    12.603863117        16.549775641         2.226708325
Fe c2    28.788135482         1.504525071         2.472971298
Fe c2     7.429863639         4.513575077         0.123131447
Fe c2    12.603863117         4.513575077         2.226708325
Fe c2    23.614135079         7.522624949         4.576548241
Fe c2     7.429863639        10.531674821         9.522491257
Fe c2    12.603863117        10.531674821         6.926387948
Fe c2    28.788135482         7.522624949        11.872330543
Fe c2    23.614135079        13.540725231         4.576548241
Fe c2    28.788135482        13.540725231        11.872330543
Fe c2    23.614135079         7.522624949         9.276228074
Fe c2     7.429863639        10.531674821         4.822811004
Fe c2    12.603863117        10.531674821        11.626067360
Fe c2    28.788135482         7.522624949         7.172651130
Fe c2    23.614135079        13.540725231         9.276228074
Fe c2    28.788135482        13.540725231         7.172651130
Fe c2    23.614135079         7.522624949        13.975907486
Fe c2     7.429863639        10.531674821         0.123131447
Fe c2    12.603863117        10.531674821         2.226708325
Fe c2    28.788135482         7.522624949         2.472971298
Fe c2    23.614135079        13.540725231        13.975907486
Fe c2    28.788135482        13.540725231         2.472971298
extra
P         0.978920793         1.504525071         1.965405913
P        30.065077116        16.549775641        12.133632955
P         4.195078801        16.549775641         4.315245829
P         6.152920618         1.504525071         0.384433925
P        30.065077116         4.513575077        12.133632955
P         4.195078801         4.513575077         4.315245829
P         0.978920793         1.504525071         6.665085535
P        30.065077116        16.549775641         7.433953543
P         4.195078801        16.549775641         9.014925662
P         6.152920618         1.504525071         9.783793669
P        30.065077116         4.513575077         7.433953543
P         4.195078801         4.513575077         9.014925662
P         0.978920793         1.504525071        11.364764948
P        30.065077116        16.549775641         2.734273710
P         4.195078801        16.549775641        13.714605074
P         6.152920618         1.504525071         5.084113416
P        30.065077116         4.513575077         2.734273710
P         4.195078801         4.513575077        13.714605074
P         0.978920793         7.522624949         1.965405913
P        30.065077116        10.531674821        12.133632955
P         4.195078801        10.531674821         4.315245829
P         6.152920618         7.522624949         0.384433925
P         0.978920793        13.540725231         1.965405913
P         6.152920618        13.540725231         0.384433925
P         0.978920793         7.522624949         6.665085535
P        30.065077116        10.531674821         7.433953543
P         4.195078801        10.531674821         9.014925662
P         6.152920618         7.522624949         9.783793669
P         0.978920793        13.540725231         6.665085535
P         6.152920618        13.540725231         9.783793669
P         0.978920793         7.522624949        11.364764948
P        30.065077116        10.531674821         2.734273710
P         4.195078801        10.531674821        13.714605074
P         6.152920618         7.522624949         5.084113416
P         0.978920793        13.540725231        11.364764948
P         6.152920618        13.540725231         5.084113416
P        11.326920558         1.504525071         1.965405913
P        19.717078160        16.549775641        12.133632955
P        24.891078563        16.549775641         4.315245829
P        16.500920961         1.504525071         0.384433925
P        19.717078160         4.513575077        12.133632955
P        24.891078563         4.513575077         4.315245829
P        11.326920558         1.504525071         6.665085535
P        19.717078160        16.549775641         7.433953543
P        24.891078563        16.549775641         9.014925662
P        16.500920961         1.504525071         9.783793669
P        19.717078160         4.513575077         7.433953543
P        24.891078563         4.513575077         9.014925662
P        11.326920558         1.504525071        11.364764948
P        19.717078160        16.549775641         2.734273710
P        24.891078563        16.549775641        13.714605074
P        16.500920961         1.504525071         5.084113416
P        19.717078160         4.513575077         2.734273710
P        24.891078563         4.513575077        13.714605074
P        11.326920558         7.522624949         1.965405913
P        19.717078160        10.531674821        12.133632955
P        24.891078563        10.531674821         4.315245829
P        16.500920961         7.522624949         0.384433925
P        11.326920558        13.540725231         1.965405913
P        16.500920961        13.540725231         0.384433925
P        11.326920558         7.522624949         6.665085535
P        19.717078160        10.531674821         7.433953543
P        24.891078563        10.531674821         9.014925662
P        16.500920961         7.522624949         9.783793669
P        11.326920558        13.540725231         6.665085535
P        16.500920961        13.540725231         9.783793669
P        11.326920558         7.522624949        11.364764948
P        19.717078160        10.531674821         2.734273710
P        24.891078563        10.531674821        13.714605074
P        16.500920961         7.522624949         5.084113416
P        11.326920558        13.540725231        11.364764948
P        16.500920961        13.540725231         5.084113416
P        21.674919514         1.504525071         1.965405913
P         9.369079204        16.549775641        12.133632955
P        14.543078682        16.549775641         4.315245829
P        26.848919917         1.504525071         0.384433925
P         9.369079204         4.513575077        12.133632955
P        14.543078682         4.513575077         4.315245829
P        21.674919514         1.504525071         6.665085535
P         9.369079204        16.549775641         7.433953543
P        14.543078682        16.549775641         9.014925662
P        26.848919917         1.504525071         9.783793669
P         9.369079204         4.513575077         7.433953543
P        14.543078682         4.513575077         9.014925662
P        21.674919514         1.504525071        11.364764948
P         9.369079204        16.549775641         2.734273710
P        14.543078682        16.549775641        13.714605074
P        26.848919917         1.504525071         5.084113416
P         9.369079204         4.513575077         2.734273710
P        14.543078682         4.513575077        13.714605074
P        21.674919514         7.522624949         1.965405913
P         9.369079204        10.531674821        12.133632955
P        14.543078682        10.531674821         4.315245829
P        26.848919917         7.522624949         0.384433925
P        21.674919514        13.540725231         1.965405913
P        26.848919917        13.540725231         0.384433925
P        21.674919514         7.522624949         6.665085535
P         9.369079204        10.531674821         7.433953543
P        14.543078682        10.531674821         9.014925662
P        26.848919917         7.522624949         9.783793669
P        21.674919514        13.540725231         6.665085535
P        26.848919917        13.540725231         9.783793669
P        21.674919514         7.522624949        11.364764948
P         9.369079204        10.531674821         2.734273710
P        14.543078682        10.531674821        13.714605074
P        26.848919917         7.522624949         5.084113416
P        21.674919514        13.540725231        11.364764948
P        26.848919917        13.540725231         5.084113416
O         1.006860402         1.504525071         3.474943372
O        30.037138432        16.549775641        10.624095496
O         4.167139192        16.549775641         5.824783288
O         6.180860227         1.504525071        12.973935622
O        30.037138432         4.513575077        10.624095496
O         4.167139192         4.513575077         5.824783288
O         1.006860402         1.504525071         8.174622994
O        30.037138432        16.549775641         5.924416083
O         4.167139192        16.549775641        10.524463121
O         6.180860227         1.504525071         8.274256210
O        30.037138432         4.513575077         5.924416083
O         4.167139192         4.513575077        10.524463121
O         1.006860402         1.504525071        12.874302407
O        30.037138432        16.549775641         1.224736356
O         4.167139192        16.549775641         1.125103561
O         6.180860227         1.504525071         3.574575957
O        30.037138432         4.513575077         1.224736356
O         4.167139192         4.513575077         1.125103561
O         1.006860402         7.522624949         3.474943372
O        30.037138432        10.531674821        10.624095496
O         4.167139192        10.531674821         5.824783288
O         6.180860227         7.522624949        12.973935622
O         1.006860402        13.540725231         3.474943372
O         6.180860227        13.540725231        12.973935622
O         1.006860402         7.522624949         8.174622994
O        30.037138432        10.531674821         5.924416083
O         4.167139192        10.531674821        10.524463121
O         6.180860227         7.522624949         8.274256210
O         1.006860402        13.540725231         8.174622994
O         6.180860227        13.540725231         8.274256210
O         1.006860402         7.522624949        12.874302407
O        30.037138432        10.531674821         1.224736356
O         4.167139192        10.531674821         1.125103561
O         6.180860227         7.522624949         3.574575957
O         1.006860402        13.540725231        12.874302407
O         6.180860227        13.540725231         3.574575957
O        11.354860168         1.504525071         3.474943372
O        19.689139476        16.549775641        10.624095496
O        24.863138029        16.549775641         5.824783288
O        16.528859646         1.504525071        12.973935622
O        19.689139476         4.513575077        10.624095496
O        24.863138029         4.513575077         5.824783288
O        11.354860168         1.504525071         8.174622994
O        19.689139476        16.549775641         5.924416083
O        24.863138029        16.549775641        10.524463121
O        16.528859646         1.504525071         8.274256210
O        19.689139476         4.513575077         5.924416083
O        24.863138029         4.513575077        10.524463121
O        11.354860168         1.504525071        12.874302407
O        19.689139476        16.549775641         1.224736356
O        24.863138029        16.549775641         1.125103561
O        16.528859646         1.504525071         3.574575957
O        19.689139476         4.513575077         1.224736356
O        24.863138029         4.513575077         1.125103561
O        11.354860168         7.522624949         3.474943372
O        19.689139476        10.531674821        10.624095496
O        24.863138029        10.531674821         5.824783288
O        16.528859646         7.522624949        12.973935622
O        11.354860168        13.540725231         3.474943372
O        16.528859646        13.540725231        12.973935622
O        11.354860168         7.522624949         8.174622994
O        19.689139476        10.531674821         5.924416083
O        24.863138029        10.531674821        10.524463121
O        16.528859646         7.522624949         8.274256210
O        11.354860168        13.540725231         8.174622994
O        16.528859646        13.540725231         8.274256210
O        11.354860168         7.522624949        12.874302407
O        19.689139476        10.531674821         1.224736356
O        24.863138029        10.531674821         1.125103561
O        16.528859646         7.522624949         3.574575957
O        11.354860168        13.540725231        12.874302407
O        16.528859646        13.540725231         3.574575957
O        21.702860049         1.504525071         3.474943372
O         9.341139595        16.549775641        10.624095496
O        14.515139073        16.549775641         5.824783288
O        26.876858601         1.504525071        12.973935622
O         9.341139595         4.513575077        10.624095496
O        14.515139073         4.513575077         5.824783288
O        21.702860049         1.504525071         8.174622994
O         9.341139595        16.549775641         5.924416083
O        14.515139073        16.549775641        10.524463121
O        26.876858601         1.504525071         8.274256210
O         9.341139595         4.513575077         5.924416083
O        14.515139073         4.513575077        10.524463121
O        21.702860049         1.504525071        12.874302407
O         9.341139595        16.549775641         1.224736356
O        14.515139073        16.549775641         1.125103561
O        26.876858601         1.504525071         3.574575957
O         9.341139595         4.513575077         1.224736356
O        14.515139073         4.513575077         1.125103561
O        21.702860049         7.522624949         3.474943372
O         9.341139595        10.531674821        10.624095496
O        14.515139073        10.531674821         5.824783288
O        26.876858601         7.522624949        12.973935622
O        21.702860049        13.540725231         3.474943372
O        26.876858601        13.540725231        12.973935622
O        21.702860049         7.522624949         8.174622994
O         9.341139595        10.531674821         5.924416083
O        14.515139073        10.531674821        10.524463121
O        26.876858601         7.522624949         8.274256210
O        21.702860049        13.540725231         8.174622994
O        26.876858601        13.540725231         8.274256210
O        21.702860049         7.522624949        12.874302407
O         9.341139595        10.531674821         1.224736356
O        14.515139073        10.531674821         1.125103561
O        26.876858601         7.522624949         3.574575957
O        21.702860049        13.540725231        12.874302407
O        26.876858601        13.540725231         3.574575957
O         4.706270306         1.504525071         0.980353182
O        26.337728412        16.549775641        13.118685686
O         0.467729490        16.549775641         3.330193098
O         9.880269784         1.504525071         1.369486630
O        26.337728412         4.513575077        13.118685686
O         0.467729490         4.513575077         3.330193098
O         4.706270306         1.504525071         5.680032804
O        26.337728412        16.549775641         8.419006273
O         0.467729490        16.549775641         8.029872931
O         9.880269784         1.504525071        10.768846400
O        26.337728412         4.513575077         8.419006273
O         0.467729490         4.513575077         8.029872931
O         4.706270306         1.504525071        10.379712217
O        26.337728412        16.549775641         3.719326441
O         0.467729490        16.549775641        12.729552343
O         9.880269784         1.504525071         6.069166147
O        26.337728412         4.513575077         3.719326441
O         0.467729490         4.513575077        12.729552343
O         4.706270306         7.522624949         0.980353182
O        26.337728412        10.531674821        13.118685686
O         0.467729490        10.531674821         3.330193098
O         9.880269784         7.522624949         1.369486630
O         4.706270306        13.540725231         0.980353182
O         9.880269784        13.540725231         1.369486630
O         4.706270306         7.522624949         5.680032804
O        26.337728412        10.531674821         8.419006273
O         0.467729490        10.531674821         8.029872931
O         9.880269784         7.522624949        10.768846400
O         4.706270306        13.540725231         5.680032804
O         9.880269784        13.540725231        10.768846400
O         4.706270306         7.522624949        10.379712217
O        26.337728412        10.531674821         3.719326441
O         0.467729490        10.531674821        12.729552343
O         9.880269784         7.522624949         6.069166147
O         4.706270306        13.540725231        10.379712217
O         9.880269784        13.540725231         6.069166147
O        15.054270187         1.504525071         0.980353182
O        15.989729456        16.549775641        13.118685686
O        21.163728009        16.549775641         3.330193098
O        20.228269665         1.504525071         1.369486630
O        15.989729456         4.513575077        13.118685686
O        21.163728009         4.513575077         3.330193098
O        15.054270187         1.504525071         5.680032804
O        15.989729456        16.549775641         8.419006273
O        21.163728009        16.549775641         8.029872931
O        20.228269665         1.504525071        10.768846400
O        15.989729456         4.513575077         8.419006273