opti conv full nosymm
vectors
       16.9407997131         0.0000000000         0.0000000000
        0.0000000000        16.9407997131         0.0000000000
        0.0000000000         0.0000000000        16.9407997131
0 0 0 0 0 0
cartesian
Mg c1     0.000000000         0.000000000         0.000000000
Mg c1     0.000000000         0.000000000         8.470399857
Mg c1     0.000000000         8.470399857         0.000000000
Mg c1     0.000000000         8.470399857         8.470399857
Mg c1     8.470399857         0.000000000         0.000000000
Mg c1     8.470399857         0.000000000         8.470399857
Mg c1     8.470399857         8.470399857         0.000000000
Mg c1     8.470399857         8.470399857         8.470399857
Mg c1     8.470399857         4.235199928         4.235199928
Mg c1     8.470399857         4.235199928        12.705599785
Mg c1     8.470399857        12.705599785         4.235199928
Mg c1     8.470399857        12.705599785        12.705599785
Mg c1     0.000000000         4.235199928         4.235199928
Mg c1     0.000000000         4.235199928        12.705599785
Mg c1     0.000000000        12.705599785         4.235199928
Mg c1     0.000000000        12.705599785        12.705599785
Mg c1     4.235199928         4.235199928         0.000000000
Mg c1     4.235199928         4.235199928         8.470399857
Mg c1     4.235199928        12.705599785         0.000000000
Mg c1     4.235199928        12.705599785         8.470399857
Mg c1    12.705599785         4.235199928         0.000000000
Mg c1    12.705599785         4.235199928         8.470399857
Mg c1    12.705599785        12.705599785         0.000000000
Mg c1    12.705599785        12.705599785         8.470399857
Mg c1     4.235199928         0.000000000         4.235199928
Mg c1     4.235199928         0.000000000        12.705599785
Mg c1     4.235199928         8.470399857         4.235199928
Mg c1     4.235199928         8.470399857        12.705599785
Mg c1    12.705599785         0.000000000         4.235199928
Mg c1    12.705599785         0.000000000        12.705599785
Mg c1    12.705599785         8.470399857         4.235199928
Mg c1    12.705599785         8.470399857        12.705599785
Mg c1     6.352799892         2.117599964         6.352799892
Mg c1     6.352799892         2.117599964        14.823199749
Mg x1     6.352799892        10.587999821         6.352799892
Mg x1     6.352799892        10.587999821        14.823199749
Mg x1    14.823199749         2.117599964         6.352799892
Mg x1    14.823199749         2.117599964        14.823199749
Mg x1    14.823199749        10.587999821         6.352799892
Mg x1    14.823199749        10.587999821        14.823199749
Mg x1     2.117599964         2.117599964         2.117599964
Mg x1     2.117599964         2.117599964        10.587999821
Mg x1     2.117599964        10.587999821         2.117599964
Mg x1     2.117599964        10.587999821        10.587999821
Mg x1    10.587999821         2.117599964         2.117599964
Mg x1    10.587999821         2.117599964        10.587999821
Mg x1    10.587999821        10.587999821         2.117599964
Mg x1    10.587999821        10.587999821        10.587999821
Mg x1     2.117599964         6.352799892         6.352799892
Mg x1     2.117599964         6.352799892        14.823199749
Mg x1     2.117599964        14.823199749         6.352799892
Mg x1     2.117599964        14.823199749        14.823199749
Mg x1    10.587999821         6.352799892         6.352799892
Mg x1    10.587999821         6.352799892        14.823199749
Mg x1    10.587999821        14.823199749         6.352799892
Mg x1    10.587999821        14.823199749        14.823199749
Mg x1     6.352799892         6.352799892         2.117599964
Mg x1     6.352799892         6.352799892        10.587999821
Mg x1     6.352799892        14.823199749         2.117599964
Mg x1     6.352799892        14.823199749        10.587999821
Mg x1    14.823199749         6.352799892         2.117599964
Mg x1    14.823199749         6.352799892        10.587999821
Mg x1    14.823199749        14.823199749         2.117599964
Mg x1    14.823199749        14.823199749        10.587999821
Tc c2     5.293999910         5.293999910         5.293999910
Tc c2     5.293999910         5.293999910        13.764399767
Tc c2     5.293999910        13.764399767         5.293999910
Tc c2     5.293999910        13.764399767        13.764399767
Tc c2    13.764399767         5.293999910         5.293999910
Tc c2    13.764399767         5.293999910        13.764399767
Tc c2    13.764399767        13.764399767         5.293999910
Tc c2    13.764399767        13.764399767        13.764399767
Tc c2     3.176399946         7.411599874         1.058799982
Tc c2     3.176399946         7.411599874         9.529199839
Tc c2     3.176399946        15.881999731         1.058799982
Tc c2     3.176399946        15.881999731         9.529199839
Tc c2    11.646799803         7.411599874         1.058799982
Tc c2    11.646799803         7.411599874         9.529199839
Tc c2    11.646799803        15.881999731         1.058799982
Tc c2    11.646799803        15.881999731         9.529199839
Tc c2     7.411599874         1.058799982         3.176399946
Tc c2     7.411599874         1.058799982        11.646799803
Tc c2     7.411599874         9.529199839         3.176399946
Tc c2     7.411599874         9.529199839        11.646799803
Tc c2    15.881999731         1.058799982         3.176399946
Tc c2    15.881999731         1.058799982        11.646799803
Tc c2    15.881999731         9.529199839         3.176399946
Tc c2    15.881999731         9.529199839        11.646799803
Tc c2     1.058799982         3.176399946         7.411599874
Tc c2     1.058799982         3.176399946        15.881999731
Tc c2     1.058799982        11.646799803         7.411599874
Tc c2     1.058799982        11.646799803        15.881999731
Tc c2     9.529199839         3.176399946         7.411599874
Tc c2     9.529199839         3.176399946        15.881999731
Tc c2     9.529199839        11.646799803         7.411599874
Tc c2     9.529199839        11.646799803        15.881999731
Tc c2     7.411599874         3.176399946         1.058799982
Tc c2     7.411599874         3.176399946         9.529199839
Tc c2     7.411599874        11.646799803         1.058799982
Tc c2     7.411599874        11.646799803         9.529199839
Tc c2    15.881999731         3.176399946         1.058799982
Tc c2    15.881999731         3.176399946         9.529199839
Tc c2    15.881999731        11.646799803         1.058799982
Tc c2    15.881999731        11.646799803         9.529199839
Tc c2     3.176399946         1.058799982         7.411599874
Tc c2     3.176399946         1.058799982        15.881999731
Tc c2     3.176399946         9.529199839         7.411599874
Tc c2     3.176399946         9.529199839        15.881999731
Tc c2    11.646799803         1.058799982         7.411599874
Tc c2    11.646799803         1.058799982        15.881999731
Tc c2    11.646799803         9.529199839         7.411599874
Tc c2    11.646799803         9.529199839        15.881999731
Tc c2     1.058799982         7.411599874         3.176399946
Tc c2     1.058799982         7.411599874        11.646799803
Tc c2     1.058799982        15.881999731         3.176399946
Tc c2     1.058799982        15.881999731        11.646799803
Tc c2     9.529199839         7.411599874         3.176399946
Tc c2     9.529199839         7.411599874        11.646799803
Tc c2     9.529199839        15.881999731         3.176399946
Tc c2     9.529199839        15.881999731        11.646799803
Tc c2     5.293999910         1.058799982         1.058799982
Tc c2     5.293999910         1.058799982         9.529199839
Tc c2     5.293999910         9.529199839         1.058799982
Tc c2     5.293999910         9.529199839         9.529199839
Tc c2    13.764399767         1.058799982         1.058799982
Tc c2    13.764399767         1.058799982         9.529199839
Tc c2    13.764399767         9.529199839         1.058799982
Tc c2    13.764399767         9.529199839         9.529199839
Tc c2     3.176399946         3.176399946         5.293999910
Tc c2     3.176399946         3.176399946        13.764399767
Tc c2     3.176399946        11.646799803         5.293999910
Tc c2     3.176399946        11.646799803        13.764399767
Mn c2    11.646799803         3.176399946         5.293999910
Mn c2    11.646799803         3.176399946        13.764399767
Mn c2    11.646799803        11.646799803         5.293999910
Mn c2    11.646799803        11.646799803        13.764399767
Mn c2     7.411599874         5.293999910         7.411599874
Mn c2     7.411599874         5.293999910        15.881999731
Mn c2     7.411599874        13.764399767         7.411599874
Mn c2     7.411599874        13.764399767        15.881999731
Mn c2    15.881999731         5.293999910         7.411599874
Mn c2    15.881999731         5.293999910        15.881999731
Mn c2    15.881999731        13.764399767         7.411599874
Mn c2    15.881999731        13.764399767        15.881999731
Mn c2     7.411599874         7.411599874         5.293999910
Mn c2     7.411599874         7.411599874        13.764399767
Mn c2     7.411599874        15.881999731         5.293999910
Mn c2     7.411599874        15.881999731        13.764399767
Mn c2    15.881999731         7.411599874         5.293999910
Mn c2    15.881999731         7.411599874        13.764399767
Mn c2    15.881999731        15.881999731         5.293999910
Mn c2    15.881999731        15.881999731        13.764399767
Mn c2     3.176399946         5.293999910         3.176399946
Mn c2     3.176399946         5.293999910        11.646799803
Mn c2     3.176399946        13.764399767         3.176399946
Mn c2     3.176399946        13.764399767        11.646799803
Mn c2    11.646799803         5.293999910         3.176399946
Mn c2    11.646799803         5.293999910        11.646799803
Mn c2    11.646799803        13.764399767         3.176399946
Mn c2    11.646799803        13.764399767        11.646799803
Mn c2     1.058799982         5.293999910         1.058799982
Mn c2     1.058799982         5.293999910         9.529199839
Mn c2     1.058799982        13.764399767         1.058799982
Mn c2     1.058799982        13.764399767         9.529199839
Mn c2     9.529199839         5.293999910         1.058799982
Mn c2     9.529199839         5.293999910         9.529199839
Mn c2     9.529199839        13.764399767         1.058799982
Mn c2     9.529199839        13.764399767         9.529199839
Mn c2     5.293999910         3.176399946         3.176399946
Mn c2     5.293999910         3.176399946        11.646799803
Mn c2     5.293999910        11.646799803         3.176399946
Mn c2     5.293999910        11.646799803        11.646799803
Mn c2    13.764399767         3.176399946         3.176399946
Mn c2    13.764399767         3.176399946        11.646799803
Mn c2    13.764399767        11.646799803         3.176399946
Mn c2    13.764399767        11.646799803        11.646799803
Mn c2     5.293999910         7.411599874         7.411599874
Mn c2     5.293999910         7.411599874        15.881999731
Mn c2     5.293999910        15.881999731         7.411599874
Mn c2     5.293999910        15.881999731        15.881999731
Mn c2    13.764399767         7.411599874         7.411599874
Mn c2    13.764399767         7.411599874        15.881999731
Mn c2    13.764399767        15.881999731         7.411599874
Mn c2    13.764399767        15.881999731        15.881999731
Mn c2     1.058799982         1.058799982         5.293999910
Mn c2     1.058799982         1.058799982        13.764399767
Mn c2     1.058799982         9.529199839         5.293999910
Mn c2     1.058799982         9.529199839        13.764399767
Mn c2     9.529199839         1.058799982         5.293999910
Mn c2     9.529199839         1.058799982        13.764399767
Mn c2     9.529199839         9.529199839         5.293999910
Mn c2     9.529199839         9.529199839        13.764399767
extra
O         3.277367156         3.277367156         3.277367156
O         3.277367156         3.277367156        11.747766760
O         3.277367156        11.747766760         3.277367156
O         3.277367156        11.747766760        11.747766760
O        11.747766760         3.277367156         3.277367156
O        11.747766760         3.277367156        11.747766760
O        11.747766760        11.747766760         3.277367156
O        11.747766760        11.747766760        11.747766760
O         5.193032953         0.957832836         7.512566831
O         5.193032953         0.957832836        15.982966688
O         5.193032953         9.428232882         7.512566831
O         5.193032953         9.428232882        15.982966688
O        13.663432810         0.957832836         7.512566831
O        13.663432810         0.957832836        15.982966688
O        13.663432810         9.428232882         7.512566831
O        13.663432810         9.428232882        15.982966688
O         0.957832836         7.512566831         5.193032953
O         0.957832836         7.512566831        13.663432810
O         0.957832836        15.982966688         5.193032953
O         0.957832836        15.982966688        13.663432810
O         9.428232882         7.512566831         5.193032953
O         9.428232882         7.512566831        13.663432810
O         9.428232882        15.982966688         5.193032953
O         9.428232882        15.982966688        13.663432810
O         7.512566831         5.193032953         0.957832836
O         7.512566831         5.193032953         9.428232882
O         7.512566831        13.663432810         0.957832836
O         7.512566831        13.663432810         9.428232882
O        15.982966688         5.193032953         0.957832836
O        15.982966688         5.193032953         9.428232882
O        15.982966688        13.663432810         0.957832836
O        15.982966688        13.663432810         9.428232882
O         1.159767191         5.394966867         3.075432737
O         1.159767191         5.394966867        11.545832846
O         1.159767191        13.865366724         3.075432737
O         1.159767191        13.865366724        11.545832846
O         9.630166796         5.394966867         3.075432737
O         9.630166796         5.394966867        11.545832846
O         9.630166796        13.865366724         3.075432737
O         9.630166796        13.865366724        11.545832846
O         7.310632918         7.310632918         7.310632918
O         7.310632918         7.310632918        15.781032774
O         7.310632918        15.781032774         7.310632918
O         7.310632918        15.781032774        15.781032774
O        15.781032774         7.310632918         7.310632918
O        15.781032774         7.310632918        15.781032774
O        15.781032774        15.781032774         7.310632918
O        15.781032774        15.781032774        15.781032774
O         5.394966867         3.075432737         1.159767191
O         5.394966867         3.075432737         9.630166796
O         5.394966867        11.545832846         1.159767191
O         5.394966867        11.545832846         9.630166796
O        13.865366724         3.075432737         1.159767191
O        13.865366724         3.075432737         9.630166796
O        13.865366724        11.545832846         1.159767191
O        13.865366724        11.545832846         9.630166796
O         3.075432737         1.159767191         5.394966867
O         3.075432737         1.159767191        13.865366724
O         3.075432737         9.630166796         5.394966867
O         3.075432737         9.630166796        13.865366724
O        11.545832846         1.159767191         5.394966867
O        11.545832846         1.159767191        13.865366724
O        11.545832846         9.630166796         5.394966867
O        11.545832846         9.630166796        13.865366724
O         5.394966867         1.159767191         3.075432737
O         5.394966867         1.159767191        11.545832846
O         5.394966867         9.630166796         3.075432737
O         5.394966867         9.630166796        11.545832846
O        13.865366724         1.159767191         3.075432737
O        13.865366724         1.159767191        11.545832846
O        13.865366724         9.630166796         3.075432737
O        13.865366724         9.630166796        11.545832846
O         1.159767191         3.075432737         5.394966867
O         1.159767191         3.075432737        13.865366724
O         1.159767191        11.545832846         5.394966867
O         1.159767191        11.545832846        13.865366724
O         9.630166796         3.075432737         5.394966867
O         9.630166796         3.075432737        13.865366724
O         9.630166796        11.545832846         5.394966867
O         9.630166796        11.545832846        13.865366724
O         3.075432737         5.394966867         1.159767191
O         3.075432737         5.394966867         9.630166796
O         3.075432737        13.865366724         1.159767191
O         3.075432737        13.865366724         9.630166796
O        11.545832846         5.394966867         1.159767191
O        11.545832846         5.394966867         9.630166796
O        11.545832846        13.865366724         1.159767191
O        11.545832846        13.865366724         9.630166796
O         0.957832836         5.193032953         7.512566831
O         0.957832836         5.193032953        15.982966688
O         0.957832836        13.663432810         7.512566831
O         0.957832836        13.663432810        15.982966688
O         9.428232882         5.193032953         7.512566831
O         9.428232882         5.193032953        15.982966688
O         9.428232882        13.663432810         7.512566831
O         9.428232882        13.663432810        15.982966688
O         5.193032953         7.512566831         0.957832836
O         5.193032953         7.512566831         9.428232882
O         5.193032953        15.982966688         0.957832836
O         5.193032953        15.982966688         9.428232882
O        13.663432810         7.512566831         0.957832836
O        13.663432810         7.512566831         9.428232882
O        13.663432810        15.982966688         0.957832836
O        13.663432810        15.982966688         9.428232882
O         7.512566831         0.957832836         5.193032953
O         7.512566831         0.957832836        13.663432810
O         7.512566831         9.428232882         5.193032953
O         7.512566831         9.428232882        13.663432810
O        15.982966688         0.957832836         5.193032953
O        15.982966688         0.957832836        13.663432810
O        15.982966688         9.428232882         5.193032953
O        15.982966688         9.428232882        13.663432810
O         3.277367156         7.512566831         7.512566831
O         3.277367156         7.512566831        15.982966688
O         3.277367156        15.982966688         7.512566831
O         3.277367156        15.982966688        15.982966688
O        11.747766760         7.512566831         7.512566831
O        11.747766760         7.512566831        15.982966688
O        11.747766760        15.982966688         7.512566831
O        11.747766760        15.982966688        15.982966688
O         5.193032953         5.193032953         3.277367156
O         5.193032953         5.193032953        11.747766760
O         5.193032953        13.663432810         3.277367156
O         5.193032953        13.663432810        11.747766760
O        13.663432810         5.193032953         3.277367156
O        13.663432810         5.193032953        11.747766760
O        13.663432810        13.663432810         3.277367156
O        13.663432810        13.663432810        11.747766760
O         0.957832836         3.277367156         0.957832836
O         0.957832836         3.277367156         9.428232882
O         0.957832836        11.747766760         0.957832836
O         0.957832836        11.747766760         9.428232882
O         9.428232882         3.277367156         0.957832836
O         9.428232882         3.277367156         9.428232882
O         9.428232882        11.747766760         0.957832836
O         9.428232882        11.747766760         9.428232882
O         1.159767191         1.159767191         7.310632918
O         1.159767191         1.159767191        15.781032774
O         1.159767191         9.630166796         7.310632918
O         1.159767191         9.630166796        15.781032774
O         9.630166796         1.159767191         7.310632918
O         9.630166796         1.159767191        15.781032774
O         9.630166796         9.630166796         7.310632918
O         9.630166796         9.630166796        15.781032774
O         7.310632918         3.075432737         3.075432737
O         7.310632918         3.075432737        11.545832846
O         7.310632918        11.545832846         3.075432737
O         7.310632918        11.545832846        11.545832846
O        15.781032774         3.075432737         3.075432737
O        15.781032774         3.075432737        11.545832846
O        15.781032774        11.545832846         3.075432737
O        15.781032774        11.545832846        11.545832846
O         5.394966867         7.310632918         5.394966867
O         5.394966867         7.310632918        13.865366724
O         5.394966867        15.781032774         5.394966867
O         5.394966867        15.781032774        13.865366724
O        13.865366724         7.310632918         5.394966867
O        13.865366724         7.310632918        13.865366724
O        13.865366724        15.781032774         5.394966867
O        13.865366724        15.781032774        13.865366724
O         5.394966867         5.394966867         7.310632918
O         5.394966867         5.394966867        15.781032774
O         5.394966867        13.865366724         7.310632918
O         5.394966867        13.865366724        15.781032774
O        13.865366724         5.394966867         7.310632918
O        13.865366724         5.394966867        15.781032774
O        13.865366724        13.865366724         7.310632918
O        13.865366724        13.865366724        15.781032774
O         1.159767191         7.310632918         1.159767191
O         1.159767191         7.310632918         9.630166796
O         1.159767191        15.781032774         1.159767191
O         1.159767191        15.781032774         9.630166796
O         9.630166796         7.310632918         1.159767191
O         9.630166796         7.310632918         9.630166796
O         9.630166796        15.781032774         1.159767191
O         9.630166796        15.781032774         9.630166796
O         0.957832836         0.957832836         3.277367156
O         0.957832836         0.957832836        11.747766760
O         0.957832836         9.428232882         3.277367156
O         0.957832836         9.428232882        11.747766760
O         9.428232882         0.957832836         3.277367156
O         9.428232882         0.957832836        11.747766760
O         9.428232882         9.428232882         3.277367156
O         9.428232882         9.428232882        11.747766760
O         5.193032953         3.277367156         5.193032953
O         5.193032953         3.277367156        13.663432810
O         5.193032953        11.747766760         5.193032953
O         5.193032953        11.747766760        13.663432810
O        13.663432810         3.277367156         5.193032953
O        13.663432810         3.277367156        13.663432810
O        13.663432810        11.747766760         5.193032953
O        13.663432810        11.747766760        13.663432810
O         7.512566831         3.277367156         7.512566831
O         7.512566831         3.277367156        15.982966688
O         7.512566831        11.747766760         7.512566831
O         7.512566831        11.747766760        15.982966688
O        15.982966688         3.277367156         7.512566831
O        15.982966688         3.277367156        15.982966688
O        15.982966688        11.747766760         7.512566831
O        15.982966688        11.747766760        15.982966688
O         3.277367156         5.193032953         5.193032953
O         3.277367156         5.193032953        13.663432810
O         3.277367156        13.663432810         5.193032953
O         3.277367156        13.663432810        13.663432810
O        11.747766760         5.193032953         5.193032953
O        11.747766760         5.193032953        13.663432810
O        11.747766760        13.663432810         5.193032953
O        11.747766760        13.663432810        13.663432810
O         3.075432737         7.310632918         3.075432737
O         3.075432737         7.310632918        11.545832846
O         3.075432737        15.781032774         3.075432737
O         3.075432737        15.781032774        11.545832846
O        11.545832846         7.310632918         3.075432737
O        11.545832846         7.310632918        11.545832846
O        11.545832846        15.781032774         3.075432737
O        11.545832846        15.781032774        11.545832846
O         7.310632918         1.159767191         1.159767191
O         7.310632918         1.159767191         9.630166796
O         7.310632918         9.630166796         1.159767191
O         7.310632918         9.630166796         9.630166796
O        15.781032774         1.159767191         1.159767191
O        15.781032774         1.159767191         9.630166796
O        15.781032774         9.630166796         1.159767191
O        15.781032774         9.630166796         9.630166796
O         7.310632918         5.394966867         5.394966867
O         7.310632918         5.394966867        13.865366724
O         7.310632918        13.865366724         5.394966867
O         7.310632918        13.865366724        13.865366724
O        15.781032774         5.394966867         5.394966867
O        15.781032774         5.394966867        13.865366724
O        15.781032774        13.865366724         5.394966867
O        15.781032774        13.865366724        13.865366724
O         3.277367156         0.957832836         0.957832836
O         3.277367156         0.957832836         9.428232882
O         3.277367156         9.428232882         0.957832836
O         3.277367156         9.428232882         9.428232882
O        11.747766760         0.957832836         0.957832836
O        11.747766760         0.957832836         9.428232882
O        11.747766760         9.428232882         0.957832836
O        11.747766760         9.428232882         9.428232882
O         7.512566831         7.512566831         3.277367156
O         7.512566831         7.512566831        11.747766760
O         7.512566831        15.982966688         3.277367156
O         7.512566831        15.982966688        11.747766760
O        15.982966688         7.512566831         3.277367156
O        15.982966688         7.512566831        11.747766760
O        15.982966688        15.982966688         3.277367156
O        15.982966688        15.982966688        11.747766760
O         3.075432737         3.075432737         7.310632918
O         3.075432737         3.075432737        15.781032774
O         3.075432737        11.545832846         7.310632918
O         3.075432737        11.545832846        15.781032774
O        11.545832846         3.075432737         7.310632918
O        11.545832846         3.075432737        15.781032774
O        11.545832846        11.545832846         7.310632918
O        11.545832846        11.545832846        15.781032774
species
Tc core  3
Mn core  4                 
O  core -2
Mg core  2                  
buck     
Mg core O core  1428.500 0.2945  0.00 0.0  6.0
Mn core O core  3087.826 0.2642  0.00 0.0 25.0
Tc core O core  1686.125 0.2962  0.00 0.0 25.0
O  core O core    22.410 0.6937 32.32 0.0 25.0
#######   OPTIONS
accuracy   8.00000
xtol opt   6.000000
gtol opt   6.000000
ftol opt   6.000000
maxcyc opt  500
dump every 10 gulp.res
output cif cryst.cif 
#switch rfo 0.03
