opti conv full nosymm
vectors
17.745748 0 0
0 18.865003 0
0 0 17.131522
0 0 0 0 0 0
cartesian region 1
Tc  c1   1.067409892         0.061310600         0.713796417   0 1 0 1 1 1 
Mn  c1   1.067409892         0.061310600         9.279557487   0 1 0 1 1 1 
Mn  c1   1.067409892         9.493811910         0.713796417   0 1 0 1 1 1 
Mn  c1   1.067409892         9.493811910         9.279557487   0 1 0 1 1 1 
Mn  c1   9.940283652         0.061310600         0.713796417   0 1 0 1 1 1 
Mn  c1   9.940283652         0.061310600         9.279557487   0 1 0 1 1 1 
Mn  c1   9.940283652         9.493811910         0.713796417   0 1 0 1 1 1 
Mn  c1   9.940283652         9.493811910         9.279557487   0 1 0 1 1 1 
Mn  c1   2.993627784         2.419410590         2.141474962   0 1 0 1 1 1 
Mn  c1   2.993627784         2.419410590        10.707236032   0 1 0 1 1 1 
Mn  c1   2.993627784        11.851911900         2.141474962   0 1 0 1 1 1 
Mn  c1   2.993627784        11.851911900        10.707236032   0 1 0 1 1 1 
Mn  c1  11.866501544         2.419410590         2.141474962   0 1 0 1 1 1 
Mn  c1  11.866501544         2.419410590        10.707236032   0 1 0 1 1 1 
Mn  c1  11.866501544        11.851911900         2.141474962   0 1 0 1 1 1 
Mn  c1  11.866501544        11.851911900        10.707236032   0 1 0 1 1 1 
Mn  c1   5.503859831         2.296789285         0.713796417   0 1 0 1 1 1 
Mn  c1   5.503859831         2.296789285         9.279557487   0 1 0 1 1 1 
Mn  c1   5.503859831        11.729290595         0.713796417   0 1 0 1 1 1 
Mn  c1   5.503859831        11.729290595         9.279557487   0 1 0 1 1 1 
Mn  c1  14.376733591         2.296789285         0.713796417   0 1 0 1 1 1 
Mn  c1  14.376733591         2.296789285         9.279557487   0 1 0 1 1 1 
Mn  c1  14.376733591        11.729290595         0.713796417   0 1 0 1 1 1 
Mn  c1  14.376733591        11.729290595         9.279557487   0 1 0 1 1 1 
Mn  c1   7.430077788         4.654889223         2.141474962   0 1 0 1 1 1 
Mn  c1   7.430077788         4.654889223        10.707236032   0 1 0 1 1 1 
Mn  c1   7.430077788        14.087390533         2.141474962   0 1 0 1 1 1 
Mn  c1   7.430077788        14.087390533        10.707236032   0 1 0 1 1 1 
Mn  c1  16.302951548         4.654889223         2.141474962   0 1 0 1 1 1 
Mn  c1  16.302951548         4.654889223        10.707236032   0 1 0 1 1 1 
Mn  c1  16.302951548        14.087390533         2.141474962   0 1 0 1 1 1 
Mn  c1  16.302951548        14.087390533        10.707236032   0 1 0 1 1 1 
Mn  c1   1.067409892         4.777510527         0.713796417   0 1 0 1 1 1 
Mn  c1   1.067409892         4.777510527         9.279557487   0 1 0 1 1 1 
Mn  c1   1.067409892        14.210011837         0.713796417   0 1 0 1 1 1 
Mn  c1   1.067409892        14.210011837         9.279557487   0 1 0 1 1 1 
Mn  c1   9.940283652         4.777510527         0.713796417   0 1 0 1 1 1 
Mn  c1   9.940283652         4.777510527         9.279557487   0 1 0 1 1 1 
Mn  c1   9.940283652        14.210011837         0.713796417   0 1 0 1 1 1 
Mn  c1   9.940283652        14.210011837         9.279557487   0 1 0 1 1 1 
Mn  c1   2.993627784         7.135610465         2.141474962   0 1 0 1 1 1 
Mn  c1   2.993627784         7.135610465        10.707236032   0 1 0 1 1 1 
Mn  c1   2.993627784        16.568111775         2.141474962   0 1 0 1 1 1 
Mn  c1   2.993627784        16.568111775        10.707236032   0 1 0 1 1 1 
Mn  c1  11.866501544         7.135610465         2.141474962   0 1 0 1 1 1 
Mn  c1  11.866501544         7.135610465        10.707236032   0 1 0 1 1 1 
Mn  c1  11.866501544        16.568111775         2.141474962   0 1 0 1 1 1 
Mn  c1  11.866501544        16.568111775        10.707236032   0 1 0 1 1 1 
Mn  c1   5.503859831         7.012989160         0.713796417   0 1 0 1 1 1 
Mn  c1   5.503859831         7.012989160         9.279557487   0 1 0 1 1 1 
Mn  c1   5.503859831        16.445490470         0.713796417   0 1 0 1 1 1 
Mn  c1   5.503859831        16.445490470         9.279557487   0 1 0 1 1 1 
Mn  c1  14.376733591         7.012989160         0.713796417   0 1 0 1 1 1 
Mn  c1  14.376733591         7.012989160         9.279557487   0 1 0 1 1 1 
Mn  c1  14.376733591        16.445490470         0.713796417   0 1 0 1 1 1 
Mn  c1  14.376733591        16.445490470         9.279557487   0 1 0 1 1 1 
Mn  c1   7.430077788         9.371089097         2.141474962   0 1 0 1 1 1 
Mn  c1   7.430077788         9.371089097        10.707236032   0 1 0 1 1 1 
Mn  c1   7.430077788        18.803590407         2.141474962   0 1 0 1 1 1 
Mn  c1   7.430077788        18.803590407        10.707236032   0 1 0 1 1 1 
Mn  c1  16.302951548         9.371089097         2.141474962   0 1 0 1 1 1 
Mn  c1  16.302951548         9.371089097        10.707236032   0 1 0 1 1 1 
Mn  c1  16.302951548        18.803590407         2.141474962   0 1 0 1 1 1 
Mn  c1  16.302951548        18.803590407        10.707236032   0 1 0 1 1 1 
Mn  c1   1.067409892         0.061310600         3.569153444   0 1 0 1 1 1 
Mn  c1   1.067409892         0.061310600        12.134914514   0 1 0 1 1 1 
Mn  c1   1.067409892         9.493811910         3.569153444   0 1 0 1 1 1 
Mn  c1   1.067409892         9.493811910        12.134914514   0 1 0 1 1 1 
Mn  c1   9.940283652         0.061310600         3.569153444   0 1 0 1 1 1 
Mn  c1   9.940283652         0.061310600        12.134914514   0 1 0 1 1 1 
Mn  c1   9.940283652         9.493811910         3.569153444   0 1 0 1 1 1 
Mn  c1   9.940283652         9.493811910        12.134914514   0 1 0 1 1 1 
Mn  c1   2.993627784         2.419410590         4.996746150   0 1 0 1 1 1 
Mn  c1   2.993627784         2.419410590        13.562507220   0 1 0 1 1 1 
Mn  c1   2.993627784        11.851911900         4.996746150   0 1 0 1 1 1 
Mn  c1   2.993627784        11.851911900        13.562507220   0 1 0 1 1 1 
Mn  c1  11.866501544         2.419410590         4.996746150   0 1 0 1 1 1 
Mn  c1  11.866501544         2.419410590        13.562507220   0 1 0 1 1 1 
Mn  c1  11.866501544        11.851911900         4.996746150   0 1 0 1 1 1 
Mn  c1  11.866501544        11.851911900        13.562507220   0 1 0 1 1 1 
Mn  c1   5.503859831         2.296789285         3.569153444   0 1 0 1 1 1 
Mn  c1   5.503859831         2.296789285        12.134914514   0 1 0 1 1 1 
Mn  c1   5.503859831        11.729290595         3.569153444   0 1 0 1 1 1 
Mn  c1   5.503859831        11.729290595        12.134914514   0 1 0 1 1 1 
Mn  c1  14.376733591         2.296789285         3.569153444   0 1 0 1 1 1 
Mn  c1  14.376733591         2.296789285        12.134914514   0 1 0 1 1 1 
Mn  c1  14.376733591        11.729290595         3.569153444   0 1 0 1 1 1 
Mn  c1  14.376733591        11.729290595        12.134914514   0 1 0 1 1 1 
Mn  c1   7.430077788         4.654889223         4.996746150   0 1 0 1 1 1 
Mn  c1   7.430077788         4.654889223        13.562507220   0 1 0 1 1 1 
Mn  c1   7.430077788        14.087390533         4.996746150   0 1 0 1 1 1 
Mn  c1   7.430077788        14.087390533        13.562507220   0 1 0 1 1 1 
Mn  c1  16.302951548         4.654889223         4.996746150   0 1 0 1 1 1 
Mn  c1  16.302951548         4.654889223        13.562507220   0 1 0 1 1 1 
Mn  c1  16.302951548        14.087390533         4.996746150   0 1 0 1 1 1 
Mn  c1  16.302951548        14.087390533        13.562507220   0 1 0 1 1 1 
Mn  c1   1.067409892         4.777510527         3.569153444   0 1 0 1 1 1 
Mn  c1   1.067409892         4.777510527        12.134914514   0 1 0 1 1 1 
Mn  c1   1.067409892        14.210011837         3.569153444   0 1 0 1 1 1 
Mn  c1   1.067409892        14.210011837        12.134914514   0 1 0 1 1 1 
Mn  c1   9.940283652         4.777510527         3.569153444   0 1 0 1 1 1 
Mn  c1   9.940283652         4.777510527        12.134914514   0 1 0 1 1 1 
Mn  c1   9.940283652        14.210011837         3.569153444   0 1 0 1 1 1 
Mn  c1   9.940283652        14.210011837        12.134914514   0 1 0 1 1 1 
Mn  c1   2.993627784         7.135610465         4.996746150   0 1 0 1 1 1 
Mn  c1   2.993627784         7.135610465        13.562507220   0 1 0 1 1 1 
Mn  c1   2.993627784        16.568111775         4.996746150   0 1 0 1 1 1 
Mn  c1   2.993627784        16.568111775        13.562507220   0 1 0 1 1 1 
Mn  c1  11.866501544         7.135610465         4.996746150   0 1 0 1 1 1 
Mn  c1  11.866501544         7.135610465        13.562507220   0 1 0 1 1 1 
Mn  c1  11.866501544        16.568111775         4.996746150   0 1 0 1 1 1 
Mn  c1  11.866501544        16.568111775        13.562507220   0 1 0 1 1 1 
Mn  c1   5.503859831         7.012989160         3.569153444   0 1 0 1 1 1 
Mn  c1   5.503859831         7.012989160        12.134914514   0 1 0 1 1 1 
Mn  c1   5.503859831        16.445490470         3.569153444   0 1 0 1 1 1 
Mn  c1   5.503859831        16.445490470        12.134914514   0 1 0 1 1 1 
Mn  c1  14.376733591         7.012989160         3.569153444   0 1 0 1 1 1 
Mn  c1  14.376733591         7.012989160        12.134914514   0 1 0 1 1 1 
Mn  c1  14.376733591        16.445490470         3.569153444   0 1 0 1 1 1 
Mn  c1  14.376733591        16.445490470        12.134914514   0 1 0 1 1 1 
Mn  c1   7.430077788         9.371089097         4.996746150   0 1 0 1 1 1 
Mn  c1   7.430077788         9.371089097        13.562507220   0 1 0 1 1 1 
Mn  c1   7.430077788        18.803590407         4.996746150   0 1 0 1 1 1 
Mn  c1   7.430077788        18.803590407        13.562507220   0 1 0 1 1 1 
Mn  c1  16.302951548         9.371089097         4.996746150   0 1 0 1 1 1 
Mn  c1  16.302951548         9.371089097        13.562507220   0 1 0 1 1 1 
Mn  c1  16.302951548        18.803590407         4.996746150   0 1 0 1 1 1 
Mn  c1  16.302951548        18.803590407        13.562507220   0 1 0 1 1 1 
Mn  c1   1.067409892         0.061310600         6.424424887   0 1 0 1 1 1 
Mn  c1   1.067409892         0.061310600        14.990185957   0 1 0 1 1 1 
Mn  c1   1.067409892         9.493811910         6.424424887   0 1 0 1 1 1 
Mn  c1   1.067409892         9.493811910        14.990185957   0 1 0 1 1 1 
Mn  c1   9.940283652         0.061310600         6.424424887   0 1 0 1 1 1 
Mn  c1   9.940283652         0.061310600        14.990185957   0 1 0 1 1 1 
Mn  c1   9.940283652         9.493811910         6.424424887   0 1 0 1 1 1 
Mn  c1   9.940283652         9.493811910        14.990185957   0 1 0 1 1 1 
Mn  c1   2.993627784         2.419410590         7.852103623   0 1 0 1 1 1 
Mn  c1   2.993627784         2.419410590        16.417864693   0 1 0 1 1 1 
Mn  c1   2.993627784        11.851911900         7.852103623   0 1 0 1 1 1 
Mn  c1   2.993627784        11.851911900        16.417864693   0 1 0 1 1 1 
Mn  c1  11.866501544         2.419410590         7.852103623   0 1 0 1 1 1 
Mn  c1  11.866501544         2.419410590        16.417864693   0 1 0 1 1 1 
Mn  c1  11.866501544        11.851911900         7.852103623   0 1 0 1 1 1 
Mn  c1  11.866501544        11.851911900        16.417864693   0 1 0 1 1 1 
Mn  c1   5.503859831         2.296789285         6.424424887   0 1 0 1 1 1 
Mn  c1   5.503859831         2.296789285        14.990185957   0 1 0 1 1 1 
Mn  c1   5.503859831        11.729290595         6.424424887   0 1 0 1 1 1 
Mn  c1   5.503859831        11.729290595        14.990185957   0 1 0 1 1 1 
Mn  c1  14.376733591         2.296789285         6.424424887   0 1 0 1 1 1 
Mn  c1  14.376733591         2.296789285        14.990185957   0 1 0 1 1 1 
Mn  c1  14.376733591        11.729290595         6.424424887   0 1 0 1 1 1 
Mn  c1  14.376733591        11.729290595        14.990185957   0 1 0 1 1 1 
Mn  c1   7.430077788         4.654889223         7.852103623   0 1 0 1 1 1 
Mn  c1   7.430077788         4.654889223        16.417864693   0 1 0 1 1 1 
Mn  c1   7.430077788        14.087390533         7.852103623   0 1 0 1 1 1 
Mn  c1   7.430077788        14.087390533        16.417864693   0 1 0 1 1 1 
Mn  c1  16.302951548         4.654889223         7.852103623   0 1 0 1 1 1 
Mn  c1  16.302951548         4.654889223        16.417864693   0 1 0 1 1 1 
Mn  c1  16.302951548        14.087390533         7.852103623   0 1 0 1 1 1 
Mn  c1  16.302951548        14.087390533        16.417864693   0 1 0 1 1 1 
Mn  c1   1.067409892         4.777510527         6.424424887   0 1 0 1 1 1 
Mn  c1   1.067409892         4.777510527        14.990185957   0 1 0 1 1 1 
Mn  c1   1.067409892        14.210011837         6.424424887   0 1 0 1 1 1 
Mn  c1   1.067409892        14.210011837        14.990185957   0 1 0 1 1 1 
Mn  c1   9.940283652         4.777510527         6.424424887   0 1 0 1 1 1 
Mn  c1   9.940283652         4.777510527        14.990185957   0 1 0 1 1 1 
Mn  c1   9.940283652        14.210011837         6.424424887   0 1 0 1 1 1 
Mn  c1   9.940283652        14.210011837        14.990185957   0 1 0 1 1 1 
Mn  c1   2.993627784         7.135610465         7.852103623   0 1 0 1 1 1 
Mn  c1   2.993627784         7.135610465        16.417864693   0 1 0 1 1 1 
Mn  c1   2.993627784        16.568111775         7.852103623   0 1 0 1 1 1 
Mn  c1   2.993627784        16.568111775        16.417864693   0 1 0 1 1 1 
Mn  c1  11.866501544         7.135610465         7.852103623   0 1 0 1 1 1 
Mn  c1  11.866501544         7.135610465        16.417864693   0 1 0 1 1 1 
Mn  c1  11.866501544        16.568111775         7.852103623   0 1 0 1 1 1 
Mn  c1  11.866501544        16.568111775        16.417864693   0 1 0 1 1 1 
Mn  c1   5.503859831         7.012989160         6.424424887   0 1 0 1 1 1 
Mn  c1   5.503859831         7.012989160        14.990185957   0 1 0 1 1 1 
Mn  c1   5.503859831        16.445490470         6.424424887   0 1 0 1 1 1 
Mn  c1   5.503859831        16.445490470        14.990185957   0 1 0 1 1 1 
Mn  c1  14.376733591         7.012989160         6.424424887   0 1 0 1 1 1 
Mn  c1  14.376733591         7.012989160        14.990185957   0 1 0 1 1 1 
Mn  c1  14.376733591        16.445490470         6.424424887   0 1 0 1 1 1 
Mn  c1  14.376733591        16.445490470        14.990185957   0 1 0 1 1 1 
Mn  c1   7.430077788         9.371089097         7.852103623   0 1 0 1 1 1 
Mn  c1   7.430077788         9.371089097        16.417864693   0 1 0 1 1 1 
Mn  c1   7.430077788        18.803590407         7.852103623   0 1 0 1 1 1 
Mn  c1   7.430077788        18.803590407        16.417864693   0 1 0 1 1 1 
Mn  c1  16.302951548         9.371089097         7.852103623   0 1 0 1 1 1 
Mn  c1  16.302951548         9.371089097        16.417864693   0 1 0 1 1 1 
Mn  c1  16.302951548        18.803590407         7.852103623   0 1 0 1 1 1 
Mn  c1  16.302951548        18.803590407        16.417864693   0 1 0 1 1 1 
Li  c2   0.000000000         0.000000000         0.000000000   0 1 0 1 1 1 
Li  x2   0.000000000         0.000000000         8.565761070   0 1 0 1 1 1 
Li  x2   0.000000000         9.432501310         0.000000000   0 1 0 1 1 1 
Li  x2   0.000000000         9.432501310         8.565761070   0 1 0 1 1 1 
Li  x2   8.872873760         0.000000000         0.000000000   0 1 0 1 1 1 
Li  x2   8.872873760         0.000000000         8.565761070   0 1 0 1 1 1 
Li  x2   8.872873760         9.432501310         0.000000000   0 1 0 1 1 1 
Li  x2   8.872873760         9.432501310         8.565761070   0 1 0 1 1 1 
Li  x2   2.060021201         0.000000000         0.000000000   0 1 0 1 1 1 
Li  x2   2.060021201         0.000000000         8.565761070   0 1 0 1 1 1 
Li  x2   2.060021201         9.432501310         0.000000000   0 1 0 1 1 1 
Li  x2   2.060021201         9.432501310         8.565761070   0 1 0 1 1 1 
Li  x2  10.932894961         0.000000000         0.000000000   0 1 0 1 1 1 
Li  x2  10.932894961         0.000000000         8.565761070   0 1 0 1 1 1 
Li  x2  10.932894961         9.432501310         0.000000000   0 1 0 1 1 1 
Li  x2  10.932894961         9.432501310         8.565761070   0 1 0 1 1 1 
Li  x2   3.089987443         0.000000000         0.000000000   0 1 0 1 1 1 
Li  x2   3.089987443         0.000000000         8.565761070   0 1 0 1 1 1 
Li  x2   3.089987443         9.432501310         0.000000000   0 1 0 1 1 1 
Li  x2   3.089987443         9.432501310         8.565761070   0 1 0 1 1 1 
Li  x2  11.962861203         0.000000000         0.000000000   0 1 0 1 1 1 
Li  x2  11.962861203         0.000000000         8.565761070   0 1 0 1 1 1 
Li  x2  11.962861203         9.432501310         0.000000000   0 1 0 1 1 1 
Li  x2  11.962861203         9.432501310         8.565761070   0 1 0 1 1 1 
Li  x2   4.119953553         0.000000000         0.000000000   0 1 0 1 1 1 
Li  x2   4.119953553         0.000000000         8.565761070   0 1 0 1 1 1 
Li  x2   4.119953553         9.432501310         0.000000000   0 1 0 1 1 1 
Li  x2   4.119953553         9.432501310         8.565761070   0 1 0 1 1 1 
Li  x2  12.992827313         0.000000000         0.000000000   0 1 0 1 1 1 
Li  x2  12.992827313         0.000000000         8.565761070   0 1 0 1 1 1 
Li  x2  12.992827313         9.432501310         0.000000000   0 1 0 1 1 1 
Li  x2  12.992827313         9.432501310         8.565761070   0 1 0 1 1 1 
Li  x2   5.150008776         0.000000000         0.000000000   0 1 0 1 1 1 
Li  x2   5.150008776         0.000000000         8.565761070   0 1 0 1 1 1 
Li  x2   5.150008776         9.432501310         0.000000000   0 1 0 1 1 1 
Li  x2   5.150008776         9.432501310         8.565761070   0 1 0 1 1 1 
Li  x2  14.022882536         0.000000000         0.000000000   0 1 0 1 1 1 
Li  x2  14.022882536         0.000000000         8.565761070   0 1 0 1 1 1 
Li  x2  14.022882536         9.432501310         0.000000000   0 1 0 1 1 1 
Li  x2  14.022882536         9.432501310         8.565761070   0 1 0 1 1 1 
Li  x2   6.179974886         0.000000000         0.000000000   0 1 0 1 1 1 
Li  x2   6.179974886         0.000000000         8.565761070   0 1 0 1 1 1 
Li  x2   6.179974886         9.432501310         0.000000000   0 1 0 1 1 1 
Li  x2   6.179974886         9.432501310         8.565761070   0 1 0 1 1 1 
Li  x2  15.052848646         0.000000000         0.000000000   0 1 0 1 1 1 
Li  x2  15.052848646         0.000000000         8.565761070   0 1 0 1 1 1 
Li  x2  15.052848646         9.432501310         0.000000000   0 1 0 1 1 1 
Li  x2  15.052848646         9.432501310         8.565761070   0 1 0 1 1 1 
Li  x2   1.029966242         1.100006428         0.000000000   0 1 0 1 1 1 
Li  x2   1.029966242         1.100006428         8.565761070   0 1 0 1 1 1 
Li  x2   1.029966242        10.532507738         0.000000000   0 1 0 1 1 1 
Li  x2   1.029966242        10.532507738         8.565761070   0 1 0 1 1 1 
Li  x2   9.902840002         1.100006428         0.000000000   0 1 0 1 1 1 
Li  x2   9.902840002         1.100006428         8.565761070   0 1 0 1 1 1 
Li  x2   9.902840002        10.532507738         0.000000000   0 1 0 1 1 1 
Li  x2   9.902840002        10.532507738         8.565761070   0 1 0 1 1 1 
Li  x2   3.089987443         1.100006428         0.000000000   0 1 0 1 1 1 
Li  x2   3.089987443         1.100006428         8.565761070   0 1 0 1 1 1 
Li  x2   3.089987443        10.532507738         0.000000000   0 1 0 1 1 1 
Li  x2   3.089987443        10.532507738         8.565761070   0 1 0 1 1 1 
Li  x2  11.962861203         1.100006428         0.000000000   0 1 0 1 1 1 
Li  x2  11.962861203         1.100006428         8.565761070   0 1 0 1 1 1 
Li  x2  11.962861203        10.532507738         0.000000000   0 1 0 1 1 1 
Li  x2  11.962861203        10.532507738         8.565761070   0 1 0 1 1 1 
Li  x2   8.239995955         1.100006428         0.000000000   0 1 0 1 1 1 
Li  x2   8.239995955         1.100006428         8.565761070   0 1 0 1 1 1 
Li  x2   8.239995955        10.532507738         0.000000000   0 1 0 1 1 1 
Li  x2   8.239995955        10.532507738         8.565761070   0 1 0 1 1 1 
Li  x2  17.112869715         1.100006428         0.000000000   0 1 0 1 1 1 
Li  x2  17.112869715         1.100006428         8.565761070   0 1 0 1 1 1 
Li  x2  17.112869715        10.532507738         0.000000000   0 1 0 1 1 1 
Li  x2  17.112869715        10.532507738         8.565761070   0 1 0 1 1 1 
Li  x2   0.000000000         2.200012856         0.000000000   0 1 0 1 1 1 
Li  x2   0.000000000         2.200012856         8.565761070   0 1 0 1 1 1 
Li  x2   0.000000000        11.632514166         0.000000000   0 1 0 1 1 1 
Li  x2   0.000000000        11.632514166         8.565761070   0 1 0 1 1 1 
Li  x2   8.872873760         2.200012856         0.000000000   0 1 0 1 1 1 
Li  x2   8.872873760         2.200012856         8.565761070   0 1 0 1 1 1 
Li  x2   8.872873760        11.632514166         0.000000000   0 1 0 1 1 1 
Li  x2   8.872873760        11.632514166         8.565761070   0 1 0 1 1 1 
Li  x2   1.029966242         2.200012856         0.000000000   0 1 0 1 1 1 
Li  x2   1.029966242         2.200012856         8.565761070   0 1 0 1 1 1 
Li  x2   1.029966242        11.632514166         0.000000000   0 1 0 1 1 1 
Li  x2   1.029966242        11.632514166         8.565761070   0 1 0 1 1 1 
Li  x2   9.902840002         2.200012856         0.000000000   0 1 0 1 1 1 
Li  x2   9.902840002         2.200012856         8.565761070   0 1 0 1 1 1 
Li  x2   9.902840002        11.632514166         0.000000000   0 1 0 1 1 1 
Li  x2   9.902840002        11.632514166         8.565761070   0 1 0 1 1 1 
Li  x2   2.060021201         2.200012856         0.000000000   0 1 0 1 1 1 
Li  x2   2.060021201         2.200012856         8.565761070   0 1 0 1 1 1 
Li  x2   2.060021201        11.632514166         0.000000000   0 1 0 1 1 1 
Li  x2   2.060021201        11.632514166         8.565761070   0 1 0 1 1 1 
Li  x2  10.932894961         2.200012856         0.000000000   0 1 0 1 1 1 
Li  x2  10.932894961         2.200012856         8.565761070   0 1 0 1 1 1 
Li  x2  10.932894961        11.632514166         0.000000000   0 1 0 1 1 1 
Li  x2  10.932894961        11.632514166         8.565761070   0 1 0 1 1 1 
Li  x2   4.119953553         2.200012856         0.000000000   0 1 0 1 1 1 
Li  x2   4.119953553         2.200012856         8.565761070   0 1 0 1 1 1 
Li  x2   4.119953553        11.632514166         0.000000000   0 1 0 1 1 1 
Li  x2   4.119953553        11.632514166         8.565761070   0 1 0 1 1 1 
Li  x2  12.992827313         2.200012856         0.000000000   0 1 0 1 1 1 
Li  x2  12.992827313         2.200012856         8.565761070   0 1 0 1 1 1 
Li  x2  12.992827313        11.632514166         0.000000000   0 1 0 1 1 1 
Li  x2  12.992827313        11.632514166         8.565761070   0 1 0 1 1 1 
Li  x2   7.210029845         2.200012856         0.000000000   0 1 0 1 1 1 
Li  x2   7.210029845         2.200012856         8.565761070   0 1 0 1 1 1 
Li  x2   7.210029845        11.632514166         0.000000000   0 1 0 1 1 1 
Li  x2   7.210029845        11.632514166         8.565761070   0 1 0 1 1 1 
Li  x2  16.082903605         2.200012856         0.000000000   0 1 0 1 1 1 
Li  x2  16.082903605         2.200012856         8.565761070   0 1 0 1 1 1 
Li  x2  16.082903605        11.632514166         0.000000000   0 1 0 1 1 1 
Li  x2  16.082903605        11.632514166         8.565761070   0 1 0 1 1 1 
Li  x2   8.239995955         2.200012856         0.000000000   0 1 0 1 1 1 
Li  x2   8.239995955         2.200012856         8.565761070   0 1 0 1 1 1 
Li  x2   8.239995955        11.632514166         0.000000000   0 1 0 1 1 1 
Li  x2   8.239995955        11.632514166         8.565761070   0 1 0 1 1 1 
Li  x2  17.112869715         2.200012856         0.000000000   0 1 0 1 1 1 
Li  x2  17.112869715         2.200012856         8.565761070   0 1 0 1 1 1 
Li  x2  17.112869715        11.632514166         0.000000000   0 1 0 1 1 1 
Li  x2  17.112869715        11.632514166         8.565761070   0 1 0 1 1 1 
Li  x2   0.000000000         3.300019495         0.000000000   0 1 0 1 1 1 
Li  x2   0.000000000         3.300019495         8.565761070   0 1 0 1 1 1 
Li  x2   0.000000000        12.732520805         0.000000000   0 1 0 1 1 1 
Li  x2   0.000000000        12.732520805         8.565761070   0 1 0 1 1 1 
Li  x2   8.872873760         3.300019495         0.000000000   0 1 0 1 1 1 
Li  x2   8.872873760         3.300019495         8.565761070   0 1 0 1 1 1 
Li  x2   8.872873760        12.732520805         0.000000000   0 1 0 1 1 1 
Li  x2   8.872873760        12.732520805         8.565761070   0 1 0 1 1 1 
Li  x2   1.029966242         3.300019495         0.000000000   0 1 0 1 1 1 
Li  x2   1.029966242         3.300019495         8.565761070   0 1 0 1 1 1 
Li  x2   1.029966242        12.732520805         0.000000000   0 1 0 1 1 1 
Li  x2   1.029966242        12.732520805         8.565761070   0 1 0 1 1 1 
Li  x2   9.902840002         3.300019495         0.000000000   0 1 0 1 1 1 
Li  x2   9.902840002         3.300019495         8.565761070   0 1 0 1 1 1 
Li  x2   9.902840002        12.732520805         0.000000000   0 1 0 1 1 1 
Li  x2   9.902840002        12.732520805         8.565761070   0 1 0 1 1 1 
Li  x2   3.089987443         3.300019495         0.000000000   0 1 0 1 1 1 
Li  x2   3.089987443         3.300019495         8.565761070   0 1 0 1 1 1 
Li  x2   3.089987443        12.732520805         0.000000000   0 1 0 1 1 1 
Li  x2   3.089987443        12.732520805         8.565761070   0 1 0 1 1 1 
Li  x2  11.962861203         3.300019495         0.000000000   0 1 0 1 1 1 
Li  x2  11.962861203         3.300019495         8.565761070   0 1 0 1 1 1 
Li  x2  11.962861203        12.732520805         0.000000000   0 1 0 1 1 1 
Li  x2  11.962861203        12.732520805         8.565761070   0 1 0 1 1 1 
Li  x2   5.150008776         3.300019495         0.000000000   0 1 0 1 1 1 
Li  x2   5.150008776         3.300019495         8.565761070   0 1 0 1 1 1 
Li  x2   5.150008776        12.732520805         0.000000000   0 1 0 1 1 1 
Li  x2   5.150008776        12.732520805         8.565761070   0 1 0 1 1 1 
Li  x2  14.022882536         3.300019495         0.000000000   0 1 0 1 1 1 
Li  x2  14.022882536         3.300019495         8.565761070   0 1 0 1 1 1 
Li  x2  14.022882536        12.732520805         0.000000000   0 1 0 1 1 1 
Li  x2  14.022882536        12.732520805         8.565761070   0 1 0 1 1 1 
Li  x2   7.210029845         3.300019495         0.000000000   0 1 0 1 1 1 
Li  x2   7.210029845         3.300019495         8.565761070   0 1 0 1 1 1 
Li  x2   7.210029845        12.732520805         0.000000000   0 1 0 1 1 1 
Li  x2   7.210029845        12.732520805         8.565761070   0 1 0 1 1 1 
Li  x2  16.082903605         3.300019495         0.000000000   0 1 0 1 1 1 
Li  x2  16.082903605         3.300019495         8.565761070   0 1 0 1 1 1 
Li  x2  16.082903605        12.732520805         0.000000000   0 1 0 1 1 1 
Li  x2  16.082903605        12.732520805         8.565761070   0 1 0 1 1 1 
Li  x2   3.089987443         0.000000000         0.900019117   0 1 0 1 1 1 
Li  x2   3.089987443         0.000000000         9.465780187   0 1 0 1 1 1 
Li  x2   3.089987443         9.432501310         0.900019117   0 1 0 1 1 1 
Li  x2   3.089987443         9.432501310         9.465780187   0 1 0 1 1 1 
Li  x2  11.962861203         0.000000000         0.900019117   0 1 0 1 1 1 
Li  x2  11.962861203         0.000000000         9.465780187   0 1 0 1 1 1 
Li  x2  11.962861203         9.432501310         0.900019117   0 1 0 1 1 1 
Li  x2  11.962861203         9.432501310         9.465780187   0 1 0 1 1 1 
Li  x2   4.119953553         0.000000000         0.900019117   0 1 0 1 1 1 
Li  x2   4.119953553         0.000000000         9.465780187   0 1 0 1 1 1 
Li  x2   4.119953553         9.432501310         0.900019117   0 1 0 1 1 1 
Li  x2   4.119953553         9.432501310         9.465780187   0 1 0 1 1 1 
Li  x2  12.992827313         0.000000000         0.900019117   0 1 0 1 1 1 
Li  x2  12.992827313         0.000000000         9.465780187   0 1 0 1 1 1 
Li  x2  12.992827313         9.432501310         0.900019117   0 1 0 1 1 1 
Li  x2  12.992827313         9.432501310         9.465780187   0 1 0 1 1 1 
Li  x2   5.150008776         0.000000000         0.900019117   0 1 0 1 1 1 
Li  x2   5.150008776         0.000000000         9.465780187   0 1 0 1 1 1 
Li  x2   5.150008776         9.432501310         0.900019117   0 1 0 1 1 1 
Li  x2   5.150008776         9.432501310         9.465780187   0 1 0 1 1 1 
Li  x2  14.022882536         0.000000000         0.900019117   0 1 0 1 1 1 
Li  x2  14.022882536         0.000000000         9.465780187   0 1 0 1 1 1 
Li  x2  14.022882536         9.432501310         0.900019117   0 1 0 1 1 1 
Li  x2  14.022882536         9.432501310         9.465780187   0 1 0 1 1 1 
Li  x2   6.179974886         0.000000000         0.900019117   0 1 0 1 1 1 
Li  x2   6.179974886         0.000000000         9.465780187   0 1 0 1 1 1 
Li  x2   6.179974886         9.432501310         0.900019117   0 1 0 1 1 1 
Li  x2   6.179974886         9.432501310         9.465780187   0 1 0 1 1 1 
Li  x2  15.052848646         0.000000000         0.900019117   0 1 0 1 1 1 
Li  x2  15.052848646         0.000000000         9.465780187   0 1 0 1 1 1 
Li  x2  15.052848646         9.432501310         0.900019117   0 1 0 1 1 1 
Li  x2  15.052848646         9.432501310         9.465780187   0 1 0 1 1 1 
Li  x2   7.210029845         0.000000000         0.900019117   0 1 0 1 1 1 
Li  x2   7.210029845         0.000000000         9.465780187   0 1 0 1 1 1 
Li  x2   7.210029845         9.432501310         0.900019117   0 1 0 1 1 1 
Li  x2   7.210029845         9.432501310         9.465780187   0 1 0 1 1 1 
Li  x2  16.082903605         0.000000000         0.900019117   0 1 0 1 1 1 
Li  x2  16.082903605         0.000000000         9.465780187   0 1 0 1 1 1 
Li  x2  16.082903605         9.432501310         0.900019117   0 1 0 1 1 1 
Li  x2  16.082903605         9.432501310         9.465780187   0 1 0 1 1 1 
Li  x2   0.000000000         1.100006428         0.900019117   0 1 0 1 1 1 